\* Problem: Unknown *\

Maximize
 obj: + GROWTH_DASH_RXN - GROWTH_DASH_RXN_reverse_6bca6

Subject To
 cpd01727_c0: - rxn12403_c0_reverse_d30dd + rxn12403_c0
 + rxn02296_c0_reverse_115eb - rxn02296_c0 = 0
 cpd02597_c0: - x_1696 + x_1695 - rxn03061_c0_reverse_4fa8d
 + rxn03061_c0 = 0
 cpd02069_c0: - rxn01101_c0_reverse_5c292 + rxn01101_c0
 - rxn02914_c0_reverse_5766b + rxn02914_c0 = 0
 cpd02799_c0: + rxn00289_c0_reverse_589d3 - rxn00289_c0
 + rxn03061_c0_reverse_4fa8d - rxn03061_c0 = 0
 cpd00209_e0: + rxn12431_c0_reverse_f3d22 - rxn12431_c0
 + TRANS_DASH_RXNIM_DASH_5771_reverse_5f296 - TRANS_DASH_RXNIM_DASH_5771
 + EXF_DASH_NITRATE_LBRACKET_Extraorganism_RBRACKET__reverse_21969
 - EXF_DASH_NITRATE_LBRACKET_Extraorganism_RBRACKET_ = 0
 cpd00037_c0: + rxn06729_c0_reverse_4b155 - rxn06729_c0
 + rxn03408_c0_reverse_f4fb2 - rxn03408_c0 + rxn00461_c0_reverse_73c3f
 - rxn00461_c0 - rxn00293_c0_reverse_820c7 + rxn00293_c0 = 0
 cpd00013_c0: - rxn02475_c0_reverse_0a9f5 + rxn02475_c0
 - rxn05466_c0_reverse_89e04 + rxn05466_c0 - rxn00166_c0_reverse_693ae
 + rxn00166_c0 - rxn00595_c0_reverse_f4370 + rxn00595_c0
 - rxn00184_c0_reverse_bf801 + rxn00184_c0 - rxn01858_c0_reverse_04502
 + rxn01858_c0 - rxn00950_c0_reverse_f76b0 + rxn00950_c0
 - rxn00347_c0_reverse_4aa4c + rxn00347_c0 - rxn00938_c0_reverse_e1115
 + rxn00938_c0 - rxn01672_c0_reverse_36a9f + rxn01672_c0
 - rxn01137_c0_reverse_8e794 + rxn01137_c0 - rxn01365_c0_reverse_de8be
 + rxn01365_c0 - 2 rxn00002_c0_reverse_34776 + 2 rxn00002_c0
 - rxn01225_c0_reverse_52863 + rxn01225_c0 - rxn00717_c0_reverse_0af42
 + rxn00717_c0 - 2 rxn02927_c0_reverse_172ad + 2 rxn02927_c0
 - rxn00342_c0_reverse_235bc + rxn00342_c0 - rxn00208_c0_reverse_fda2f
 + rxn00208_c0 - rxn00262_c0_reverse_9d1cf + rxn00262_c0
 + rxn00568_c0_reverse_a1c6b - rxn00568_c0 - rxn12230_c0_reverse_8eed2
 + rxn12230_c0 - rxn00189_c0_reverse_e4fb9 + rxn00189_c0
 - rxn01368_c0_reverse_895ab + rxn01368_c0 - 2 rxn00101_c0_reverse_6edc5
 + 2 rxn00101_c0 - 4 rxn00060_c0_reverse_5ca93 + 4 rxn00060_c0
 + rxn00187_c0_reverse_1628c - rxn00187_c0 - rxn00737_c0_reverse_8a60e
 + rxn00737_c0 - rxn08291_c0_reverse_9e151 + rxn08291_c0
 - 2 rxn00327_c0_reverse_ce61d + 2 rxn00327_c0
 - rxn00867_c0_reverse_81169 + rxn00867_c0 = 0
 cpd02345_c0: + rxn19846_c0_reverse_1ddb1 - rxn19846_c0
 - rxn01629_c0_reverse_6daca + rxn01629_c0 = 0
 cpd02886_c0: - rxn06729_c0_reverse_4b155 + rxn06729_c0
 + rxn03146_c0_reverse_5fcc1 - rxn03146_c0 = 0
 cpd00029_c0: - rxn00649_c0_reverse_37aab + rxn00649_c0
 + rxn00175_c0_reverse_c6ef7 - rxn00175_c0 - rxn12237_c0_reverse_4ea7c
 + rxn12237_c0 + rxn00225_c0_reverse_bc53a - rxn00225_c0
 - rxn12206_c0_reverse_c1e99 + rxn12206_c0 + rxn00875_c0_reverse_62069
 - rxn00875_c0 - rxn08063_c0_reverse_6fc96 + rxn08063_c0
 - rxn00952_c0_reverse_3ef6d + rxn00952_c0 - rxn09167_c0_reverse_90de2
 + rxn09167_c0 - rxn03146_c0_reverse_5fcc1 + rxn03146_c0
 - rxn12299_c0_reverse_d2706 + rxn12299_c0 - rxn12238_c0_reverse_7d85b
 + rxn12238_c0 - rxn02302_c0_reverse_fbe6c + rxn02302_c0
 - rxn00469_c0_reverse_1b6e4 + rxn00469_c0 + rxn00990_c0_reverse_b2e16
 - rxn00990_c0 = 0
 cpd00026_c0: + rxn00211_c0_reverse_3e4c5 - rxn00211_c0
 + 1.67 rxn12335_c0_reverse_6be8f - 1.67 rxn12335_c0
 - rxn00213_c0_reverse_0365f + rxn00213_c0 + rxn00605_c0_reverse_b010b
 - rxn00605_c0 + rxn00214_c0_reverse_91d50 - rxn00214_c0 = 0
 cpd00135_c0: + rxn03052_c0_reverse_04585 - rxn03052_c0
 - rxn00950_c0_reverse_f76b0 + rxn00950_c0 + rxn00693_c0_reverse_80a8c
 - rxn00693_c0 - rxn00141_c0_reverse_d1d0b + rxn00141_c0
 - rxn00952_c0_reverse_3ef6d + rxn00952_c0 = 0
 cpd05192_c0: + rxn12254_c0_reverse_ac3c1 - rxn12254_c0
 - rxn12406_c0_reverse_53f28 + rxn12406_c0 = 0
 cpd16605_c0: + rxn12251_c0_reverse_0649a - rxn12251_c0
 - rxn12250_c0_reverse_cbb57 + rxn12250_c0 = 0
 cpd27808_c0: - 0.04 rxn12192_c0_reverse_10826 + 0.04 rxn12192_c0
 + rxn41196_c0_reverse_2ab9c - rxn41196_c0 = 0
 cpd16618_e0:
 + EXF_DASH_C16_COLON_1_LPAREN_C7_RPAREN__LBRACKET_Extraorganism_RBRACKET__reverse_333fb
 - EXF_DASH_C16_COLON_1_LPAREN_C7_RPAREN__LBRACKET_Extraorganism_RBRACKET_
 + rxn12389_c0_reverse_cb452 - rxn12389_c0 = 0
 cpd01311_c0: - rxn02277_c0_reverse_c3e02 + rxn02277_c0
 + rxn17731_c0_reverse_a1749 - rxn17731_c0 = 0
 cpd00019_c0: + rxn00143_c0_reverse_66afb - rxn00143_c0
 - 2 rxn05005_c0_reverse_b93fa + 2 rxn05005_c0
 + rxn00141_c0_reverse_d1d0b - rxn00141_c0 - rxn03397_c0_reverse_7d0f6
 + rxn03397_c0 - rxn08130_c0_reverse_96dfb + rxn08130_c0
 - rxn03395_c0_reverse_2cac4 + rxn03395_c0 - rxn08353_c0_reverse_d5376
 + rxn08353_c0 = 0
 cpd00043_c0: - rxn00214_c0_reverse_91d50 + rxn00214_c0 = 0
 cpd00221_e0: + rxn12366_c0_reverse_b6ba1 - rxn12366_c0
 + EXF_DASH_D_DASH_LACTATE_LBRACKET_Extraorganism_RBRACKET__reverse_dcfde
 - EXF_DASH_D_DASH_LACTATE_LBRACKET_Extraorganism_RBRACKET_ = 0
 cpd00178_c0: - rxn12295_c0_reverse_64262 + rxn12295_c0 = 0
 cpd00809_c0: - rxn01300_c0_reverse_a4dd2 + rxn01300_c0
 + rxn01069_c0_reverse_6c902 - rxn01069_c0 = 0
 cpd00156_c0: + rxn44277_c0_reverse_f6ffe - rxn44277_c0
 + rxn00903_c0_reverse_8c60f - rxn00903_c0 = 0
 cpd27782_c0: - 0.02 rxn12192_c0_reverse_10826 + 0.02 rxn12192_c0
 + rxn47831_c0_reverse_68e43 - rxn47831_c0 = 0
 cpd00033_e0: + rxn05582_c0_reverse_52f81 - rxn05582_c0
 + EXF_DASH_GLY_LBRACKET_Extraorganism_RBRACKET__reverse_94932
 - EXF_DASH_GLY_LBRACKET_Extraorganism_RBRACKET_ = 0
 cpd00093_c0: + rxn00595_c0_reverse_f4370 - rxn00595_c0
 - rxn00791_c0_reverse_c2912 + rxn00791_c0 - rxn12383_c0_reverse_edddb
 + rxn12383_c0 - rxn00727_c0_reverse_7475f + rxn00727_c0 = 0
 cpd00599_c0: + rxn00589_c0_reverse_9e00a - rxn00589_c0
 - rxn12297_c0_reverse_17183 + rxn12297_c0 - rxn12401_c0_reverse_39a95
 + rxn12401_c0 - rxn02107_c0_reverse_9028d + rxn02107_c0 = 0
 cpd00438_e0: + rxn12414_c0_reverse_510aa - rxn12414_c0
 + EXF_DASH_DEOXYADENOSINE_LBRACKET_Extraorganism_RBRACKET__reverse_93660
 - EXF_DASH_DEOXYADENOSINE_LBRACKET_Extraorganism_RBRACKET_ = 0
 cpd00055_c0: - rxn00433_c0_reverse_fd8dd + rxn00433_c0
 - rxn03586_c0_reverse_bec9c + rxn03586_c0 + rxn12217_c0_reverse_aabb4
 - rxn12217_c0 = 0
 cpd01471_c0: + rxn00925_c0_reverse_da2c8 - rxn00925_c0 = 0
 cpd01324_c0: + rxn00863_c0_reverse_45538 - rxn00863_c0
 - rxn02159_c0_reverse_80539 + rxn02159_c0 = 0
 cpd00209_c0: + rxn12498_c0_reverse_04855 - rxn12498_c0
 - rxn12431_c0_reverse_f3d22 + rxn12431_c0
 - TRANS_DASH_RXNIM_DASH_5771_reverse_5f296 + TRANS_DASH_RXNIM_DASH_5771
 = 0
 cpd00311_e0: + rxn12427_c0_reverse_ea9d3 - rxn12427_c0
 + EXF_DASH_GUANOSINE_LBRACKET_Extraorganism_RBRACKET__reverse_fa777
 - EXF_DASH_GUANOSINE_LBRACKET_Extraorganism_RBRACKET_ = 0
 cpd00270_c0: - rxn01427_c0_reverse_2284d + rxn01427_c0
 - rxn12228_c0_reverse_9e732 + rxn12228_c0 + rxn12241_c0_reverse_bb72e
 - rxn12241_c0 = 0
 cpd02546_c0: + rxn03182_c0_reverse_1fd52 - rxn03182_c0
 - rxn02405_c0_reverse_c0fb5 + rxn02405_c0 + rxn03439_c0_reverse_dd2d2
 - rxn03439_c0 = 0
 cpd16628_c0: + 0.475 rxn12350_c0_reverse_31a51 - 0.475 rxn12350_c0
 - rxn12353_c0_reverse_b4bf0 + rxn12353_c0 = 0
 cpd00048_e0: + rxn12369_c0_reverse_942cb - rxn12369_c0
 + rxn05153_c0_reverse_4452f - rxn05153_c0
 + EXF_DASH_SULFATE_LBRACKET_Extraorganism_RBRACKET__reverse_89425
 - EXF_DASH_SULFATE_LBRACKET_Extraorganism_RBRACKET_ = 0
 cpd00001_c0: + rxn01519_c0_reverse_4bfd7 - rxn01519_c0
 - rxn01477_c0_reverse_67584 + rxn01477_c0 + rxn00301_c0_reverse_bcf0e
 - rxn00301_c0 - rxn00589_c0_reverse_9e00a + rxn00589_c0
 + rxn03970_c0_reverse_3d5bd - rxn03970_c0 + rxn12278_c0_reverse_13f19
 - rxn12278_c0 + rxn12258_c0_reverse_90736 - rxn12258_c0
 + rxn12272_c0_reverse_3870d - rxn12272_c0 + rxn02475_c0_reverse_0a9f5
 - rxn02475_c0 + rxn03969_c0_reverse_a1720 - rxn03969_c0
 + 2 rxn00504_c0_reverse_5bbb1 - 2 rxn00504_c0
 + rxn00779_c0_reverse_9042e - rxn00779_c0 + rxn05120_c0_reverse_6f116
 - rxn05120_c0 - 2 rxn12219_c0_reverse_43385 + 2 rxn12219_c0
 - rxn12215_c0_reverse_68c5f + rxn12215_c0 + rxn01522_c0_reverse_e9b47
 - rxn01522_c0 + rxn01297_c0_reverse_c2a85 - rxn01297_c0
 - rxn02911_c0_reverse_25737 + rxn02911_c0 + rxn00132_c0_reverse_3a5d8
 - rxn00132_c0 + rxn12323_c0_reverse_5d45e - rxn12323_c0
 + 3 rxn00300_c0_reverse_7e153 - 3 rxn00300_c0
 + rxn01274_c0_reverse_3c82a - rxn01274_c0 + rxn00211_c0_reverse_3e4c5
 - rxn00211_c0 + rxn12231_c0_reverse_fa7fd - rxn12231_c0
 - rxn03168_c0_reverse_d9d27 + rxn03168_c0 + rxn00943_c0_reverse_a6b46
 - rxn00943_c0 - rxn02473_c0_reverse_9b509 + rxn02473_c0
 - rxn03250_c0_reverse_5161e + rxn03250_c0 + rxn12283_c0_reverse_fdf92
 - rxn12283_c0 + rxn01145_c0_reverse_a92f4 - rxn01145_c0
 - rxn12498_c0_reverse_04855 + rxn12498_c0 + rxn08440_c0_reverse_26b9d
 - rxn08440_c0 - rxn00251_c0_reverse_b1866 + rxn00251_c0
 + rxn06075_c0_reverse_62c9c - rxn06075_c0 + rxn00291_c0_reverse_dab3b
 - rxn00291_c0 - rxn05329_c0_reverse_d98be + rxn05329_c0
 - rxn03245_c0_reverse_157ba + rxn03245_c0 - x_1696 + x_1695
 + rxn00095_c0_reverse_81e8f - rxn00095_c0 - rxn00962_c0_reverse_0f878
 + rxn00962_c0 - rxn01634_c0_reverse_88f19 + rxn01634_c0
 + rxn02004_c0_reverse_e631c - rxn02004_c0
 + 40 GROWTH_DASH_RXN_reverse_6bca6 - 40 GROWTH_DASH_RXN
 - C14_COLON_0_DASH_3HYDROXYACP_DASH_DEHYDRATASE_DASH_RXN_reverse_1be06
 + C14_COLON_0_DASH_3HYDROXYACP_DASH_DEHYDRATASE_DASH_RXN
 - rxn08469_c0_reverse_dae27 + rxn08469_c0 + rxn20643_c0_reverse_33af7
 - rxn20643_c0 + rxn00143_c0_reverse_66afb - rxn00143_c0
 - 2 rxn00029_c0_reverse_860e3 + 2 rxn00029_c0
 - rxn01997_c0_reverse_e1a54 + rxn01997_c0 + rxn01351_c0_reverse_08d9b
 - rxn01351_c0 + rxn09013_c0_reverse_90828 - rxn09013_c0
 + rxn00367_c0_reverse_8ab6d - rxn00367_c0 + 2 rxn00299_c0_reverse_d20b3
 - 2 rxn00299_c0 + rxn12255_c0_reverse_1f2ed - rxn12255_c0
 + rxn01331_c0_reverse_39a94 - rxn01331_c0 + rxn00925_c0_reverse_da2c8
 - rxn00925_c0 + RXN0_DASH_366_reverse_21134 - RXN0_DASH_366
 + rxn26065_c0_reverse_d1734 - rxn26065_c0 + rxn08446_c0_reverse_2e5b5
 - rxn08446_c0 + rxn00184_c0_reverse_bf801 - rxn00184_c0
 - rxn00330_c0_reverse_9c12f + rxn00330_c0 - rxn07578_c0_reverse_77323
 + rxn07578_c0 + rxn00917_c0_reverse_35aaa - rxn00917_c0
 + rxn01858_c0_reverse_04502 - rxn01858_c0 + rxn05219_c0_reverse_e0806
 - rxn05219_c0 + rxn03422_c0_reverse_84b00 - rxn03422_c0
 - rxn07574_c0_reverse_11452 + rxn07574_c0 + rxn00433_c0_reverse_fd8dd
 - rxn00433_c0 + rxn05183_c0_reverse_3dbd5 - rxn05183_c0
 + rxn04024_c0_reverse_98aa9 - rxn04024_c0 - rxn00679_c0_reverse_243e0
 + rxn00679_c0 - rxn03586_c0_reverse_bec9c + rxn03586_c0
 + rxn00950_c0_reverse_f76b0 - rxn00950_c0 - 2 rxn03080_c0_reverse_17453
 + 2 rxn03080_c0 + rxn00509_c0_reverse_e58fa - rxn00509_c0
 + rxn05152_c0_reverse_3e5ca - rxn05152_c0 - rxn05334_c0_reverse_1a75d
 + rxn05334_c0 + rxn00913_c0_reverse_e72c9 - rxn00913_c0
 + rxn01032_c0_reverse_bad7b - rxn01032_c0 - rxn12312_c0_reverse_ab1d2
 + rxn12312_c0 - rxn05330_c0_reverse_452b8 + rxn05330_c0
 + rxn00980_c0_reverse_3afe7 - rxn00980_c0 - rxn00799_c0_reverse_559f2
 + rxn00799_c0 + rxn05114_c0_reverse_34e1e - rxn05114_c0
 + rxn01286_c0_reverse_9270e - rxn01286_c0 + rxn00912_c0_reverse_23517
 - rxn00912_c0 + rxn12297_c0_reverse_17183 - rxn12297_c0
 + rxn05153_c0_reverse_4452f - rxn05153_c0 + rxn12237_c0_reverse_4ea7c
 - rxn12237_c0 + rxn01462_c0_reverse_51a4a - rxn01462_c0
 + rxn12242_c0_reverse_4d875 - rxn12242_c0 - rxn00459_c0_reverse_7f5be
 + rxn00459_c0 + rxn02404_c0_reverse_cb0b0 - rxn02404_c0
 + rxn03173_c0_reverse_e93ab - rxn03173_c0 - rxn00993_c0_reverse_f3858
 + rxn00993_c0 + rxn08441_c0_reverse_2611c - rxn08441_c0
 + rxn20526_c0_reverse_6eb70 - rxn20526_c0 + rxn01961_c0_reverse_03538
 - rxn01961_c0 - rxn00776_c0_reverse_bfadd + rxn00776_c0
 + rxn12250_c0_reverse_cbb57 - rxn12250_c0 + rxn00938_c0_reverse_e1115
 - rxn00938_c0 + 3 rxn00623_c0_reverse_f1142 - 3 rxn00623_c0
 + rxn06138_c0_reverse_460eb - rxn06138_c0 + rxn01521_c0_reverse_faebb
 - rxn01521_c0 + rxn05735_c0_reverse_f8529 - rxn05735_c0
 - rxn09042_c0_reverse_0d1fb + rxn09042_c0 - rxn05332_c0_reverse_138b1
 + rxn05332_c0 + rxn00863_c0_reverse_45538 - rxn00863_c0
 - rxn05233_c0_reverse_e7700 + rxn05233_c0 + rxn12328_c0_reverse_4038d
 - rxn12328_c0 + rxn05146_c0_reverse_e327d - rxn05146_c0
 - rxn00902_c0_reverse_e672c + rxn00902_c0 + rxn00412_c0_reverse_f611b
 - rxn00412_c0 + rxn01332_c0_reverse_f9f28 - rxn01332_c0
 - rxn05319_c0_reverse_b72db + rxn05319_c0 - rxn01000_c0_reverse_3c355
 + rxn01000_c0 - rxn03247_c0_reverse_39359 + rxn03247_c0
 + rxn02835_c0_reverse_7eeed - rxn02835_c0 + rxn12234_c0_reverse_f0c78
 - rxn12234_c0 + rxn00638_c0_reverse_998e3 - rxn00638_c0
 + rxn12267_c0_reverse_250c9 - rxn12267_c0 - rxn00974_c0_reverse_d835d
 + rxn00974_c0 + rxn03901_c0_reverse_d694e - rxn03901_c0
 - rxn00102_c0_reverse_7b86e + rxn00102_c0 - rxn12325_c0_reverse_d615b
 + rxn12325_c0 + rxn00832_c0_reverse_d8a09 - rxn00832_c0
 + rxn02144_c0_reverse_2881f - rxn02144_c0 + rxn01672_c0_reverse_36a9f
 - rxn01672_c0 + rxn01222_c0_reverse_e7a5c - rxn01222_c0
 - rxn04113_c0_reverse_d915b + rxn04113_c0 + rxn00691_c0_reverse_a2583
 - rxn00691_c0 + rxn01137_c0_reverse_8e794 - rxn01137_c0
 - rxn01388_c0_reverse_67d04 + rxn01388_c0 + rxn06033_c0_reverse_b392c
 - rxn06033_c0 + rxn08447_c0_reverse_8d4c6 - rxn08447_c0
 + rxn03880_c0_reverse_1abce - rxn03880_c0 + rxn00831_c0_reverse_384c0
 - rxn00831_c0 + rxn01365_c0_reverse_de8be - rxn01365_c0
 - rxn01964_c0_reverse_9ec1a + rxn01964_c0 - rxn09310_c0_reverse_1afad
 + rxn09310_c0 + TRANS_DASH_RXNIM_DASH_5895_reverse_e3ee2
 - TRANS_DASH_RXNIM_DASH_5895 + rxn00141_c0_reverse_d1d0b - rxn00141_c0
 + rxn00002_c0_reverse_34776 - rxn00002_c0 + rxn01225_c0_reverse_52863
 - rxn01225_c0 - rxn12233_c0_reverse_9273a + rxn12233_c0
 + rxn06076_c0_reverse_25cbd - rxn06076_c0 - rxn05331_c0_reverse_69940
 + rxn05331_c0 + rxn08444_c0_reverse_f6c59 - rxn08444_c0
 - rxn02507_c0_reverse_414b4 + rxn02507_c0 - rxn00790_c0_reverse_86aeb
 + rxn00790_c0 + rxn12329_c0_reverse_80a40 - rxn12329_c0
 + rxn00717_c0_reverse_0af42 - rxn00717_c0 - rxn10092_c0_reverse_5e6d7
 + rxn10092_c0 - x_780 + x_779 + rxn01973_c0_reverse_613ad - rxn01973_c0
 - 2 rxn00006_c0_reverse_a6194 + 2 rxn00006_c0
 - rxn03241_c0_reverse_44fc5 + rxn03241_c0 - rxn03061_c0_reverse_4fa8d
 + rxn03061_c0 + rxn00420_c0_reverse_c9664 - rxn00420_c0
 - rxn00256_c0_reverse_b1561 + rxn00256_c0 + rxn00196_c0_reverse_3cc98
 - rxn00196_c0 + rxn23789_c0_reverse_d9f36 - rxn23789_c0
 - rxn12317_c0_reverse_f375b + rxn12317_c0 + rxn04996_c0_reverse_f7c7e
 - rxn04996_c0 + rxn01226_c0_reverse_31282 - rxn01226_c0
 - rxn01989_c0_reverse_0d67b + rxn01989_c0 + rxn08981_c0_reverse_9dac7
 - rxn08981_c0 + rxn12289_c0_reverse_0df61 - rxn12289_c0
 + rxn09167_c0_reverse_90de2 - rxn09167_c0 + rxn12321_c0_reverse_19324
 - rxn12321_c0 + rxn00001_c0_reverse_24410 - rxn00001_c0
 + 2 rxn02927_c0_reverse_172ad - 2 rxn02927_c0
 + TRANS_DASH_RXNIM_DASH_5771_reverse_5f296 - TRANS_DASH_RXNIM_DASH_5771
 - rxn08173_c0_reverse_2f53a + rxn08173_c0 - rxn12229_c0_reverse_b8ec2
 + rxn12229_c0 + rxn00342_c0_reverse_235bc - rxn00342_c0
 + rxn01867_c0_reverse_ea907 - rxn01867_c0 + rxn00463_c0_reverse_212c5
 - rxn00463_c0 + rxn00208_c0_reverse_fda2f - rxn00208_c0
 + rxn00549_c0_reverse_1ff19 - rxn00549_c0 - 2 rxn04070_c0_reverse_7fa04
 + 2 rxn04070_c0 + rxn00262_c0_reverse_9d1cf - rxn00262_c0
 + rxn01211_c0_reverse_093f7 - rxn01211_c0 + rxn05039_c0_reverse_b851c
 - rxn05039_c0 + rxn12315_c0_reverse_4ad8f - rxn12315_c0
 - 2 CYT_DASH_UBIQUINOL_DASH_OXID_DASH_D_DASH_RXN_reverse_59fbf
 + 2 CYT_DASH_UBIQUINOL_DASH_OXID_DASH_D_DASH_RXN
 + rxn02107_c0_reverse_9028d - rxn02107_c0 + rxn00834_c0_reverse_0227f
 - rxn00834_c0 + rxn01465_c0_reverse_5c55f - rxn01465_c0
 + rxn01545_c0_reverse_d2776 - rxn01545_c0 + rxn02160_c0_reverse_d62d3
 - rxn02160_c0 + rxn02177_c0_reverse_3e2ec - rxn02177_c0
 + rxn01218_c0_reverse_a9732 - rxn01218_c0 + 2 rxn00568_c0_reverse_a1c6b
 - 2 rxn00568_c0 - rxn03240_c0_reverse_29d03 + rxn03240_c0
 + rxn03031_c0_reverse_c2742 - rxn03031_c0 + rxn05145_c0_reverse_604c0
 - rxn05145_c0 + rxn00126_c0_reverse_c47fb - rxn00126_c0
 + rxn12230_c0_reverse_8eed2 - rxn12230_c0 - rxn03437_c0_reverse_86948
 + rxn03437_c0 + rxn03130_c0_reverse_c33e1 - rxn03130_c0
 + rxn08434_c0_reverse_c9a51 - rxn08434_c0 + rxn00189_c0_reverse_e4fb9
 - rxn00189_c0 + rxn05172_c0_reverse_adef7 - rxn05172_c0
 + rxn19072_c0_reverse_37d07 - rxn19072_c0 + rxn01746_c0_reverse_f4eaf
 - rxn01746_c0 + rxn00063_c0_reverse_f75e0 - rxn00063_c0
 - rxn05333_c0_reverse_d5880 + rxn05333_c0 + rxn08439_c0_reverse_b2eb5
 - rxn08439_c0 + rxn00708_c0_reverse_fe989 - rxn00708_c0
 + rxn03146_c0_reverse_5fcc1 - rxn03146_c0 - rxn05231_c0_reverse_2f4e0
 + rxn05231_c0 + rxn00692_c0_reverse_2db83 - rxn00692_c0
 + 2 rxn02988_c0_reverse_371a0 - 2 rxn02988_c0
 + rxn01368_c0_reverse_895ab - rxn01368_c0 + rxn00979_c0_reverse_e9063
 - rxn00979_c0 - rxn02374_c0_reverse_681e0 + rxn02374_c0
 + rxn05552_c0_reverse_e1fec - rxn05552_c0 - rxn02213_c0_reverse_d7e4f
 + rxn02213_c0 + rxn00147_c0_reverse_87430 - rxn00147_c0
 + rxn12320_c0_reverse_d53d3 - rxn12320_c0 + rxn00101_c0_reverse_6edc5
 - rxn00101_c0 - rxn02331_c0_reverse_1f746 + rxn02331_c0
 + rxn12299_c0_reverse_d2706 - rxn12299_c0 + rxn12238_c0_reverse_7d85b
 - rxn12238_c0 + rxn01069_c0_reverse_6c902 - rxn01069_c0
 + rxn01445_c0_reverse_e75dd - rxn01445_c0 + rxn00060_c0_reverse_5ca93
 - rxn00060_c0 + rxn00414_c0_reverse_bab8c - rxn00414_c0
 + rxn09014_c0_reverse_95e82 - rxn09014_c0 - rxn02167_c0_reverse_8528a
 + rxn02167_c0 + rxn00957_c0_reverse_b25dd - rxn00957_c0
 + rxn01507_c0_reverse_17467 - rxn01507_c0 + rxn12348_c0_reverse_6d0fb
 - rxn12348_c0 + rxn01352_c0_reverse_998e4 - rxn01352_c0
 - 2 rxn01644_c0_reverse_e93fc + 2 rxn01644_c0
 - rxn02264_c0_reverse_b57e2 + rxn02264_c0 + rxn03084_c0_reverse_df786
 - rxn03084_c0 + rxn00190_c0_reverse_12593 - rxn00190_c0
 + rxn12247_c0_reverse_78639 - rxn12247_c0 + rxn00469_c0_reverse_1b6e4
 - rxn00469_c0 + rxn12241_c0_reverse_bb72e - rxn12241_c0
 - rxn12217_c0_reverse_aabb4 + rxn12217_c0 + rxn08291_c0_reverse_9e151
 - rxn08291_c0 - rxn01188_c0_reverse_574aa + rxn01188_c0
 - 2 rxn00205_c0_reverse_490b1 + 2 rxn00205_c0
 + rxn02834_c0_reverse_537f6 - rxn02834_c0 + rxn00327_c0_reverse_ce61d
 - rxn00327_c0 - 2 rxn12494_c0_reverse_b1375 + 2 rxn12494_c0
 + rxn01299_c0_reverse_cdf8f - rxn01299_c0 - rxn12232_c0_reverse_a85f0
 + rxn12232_c0 + rxn00062_c0_reverse_6beb7 - rxn00062_c0
 + rxn06556_c0_reverse_11a34 - rxn06556_c0 - rxn03887_c0_reverse_5f951
 + rxn03887_c0 - rxn15467_c0_reverse_81ce7 + rxn15467_c0
 + rxn12357_c0_reverse_bbe8a - rxn12357_c0 = 0
 cpd00506_c0: + rxn00351_c0_reverse_cfbb1 - rxn00351_c0
 - rxn00646_c0_reverse_c5e5a + rxn00646_c0 = 0
 cpd00103_c0: - rxn01362_c0_reverse_415bb + rxn01362_c0
 - rxn00770_c0_reverse_9f9ec + rxn00770_c0 - rxn00139_c0_reverse_8174b
 + rxn00139_c0 - rxn00941_c0_reverse_91e08 + rxn00941_c0
 - rxn00791_c0_reverse_c2912 + rxn00791_c0 - rxn01544_c0_reverse_f6321
 + rxn01544_c0 - rxn00789_c0_reverse_0ebce + rxn00789_c0
 - rxn00915_c0_reverse_c94c3 + rxn00915_c0 - rxn00836_c0_reverse_48e4c
 + rxn00836_c0 - rxn00790_c0_reverse_86aeb + rxn00790_c0
 - rxn02402_c0_reverse_d4532 + rxn02402_c0 + rxn08981_c0_reverse_9dac7
 - rxn08981_c0 - rxn00711_c0_reverse_2f39d + rxn00711_c0 = 0
 cpd03128_c0: - rxn09453_c0_reverse_59a33 + rxn09453_c0
 + rxn03243_c0_reverse_6d279 - rxn03243_c0 + rxn03253_c0_reverse_89a23
 - rxn03253_c0 + rxn08439_c0_reverse_b2eb5 - rxn08439_c0 = 0
 cpd16597_c0:
 + GLYCEROL_DASH_3_DASH_P_DASH_ACYLTRANSFER_DASH_TAG_DASH_RXN_reverse_5caf4
 - GLYCEROL_DASH_3_DASH_P_DASH_ACYLTRANSFER_DASH_TAG_DASH_RXN
 - rxn12342_c0_reverse_be5cf + rxn12342_c0 + rxn10204_c0_reverse_e1ced
 - rxn10204_c0 = 0
 cpd00515_c0: + rxn01634_c0_reverse_88f19 - rxn01634_c0
 - rxn01989_c0_reverse_0d67b + rxn01989_c0 - rxn03887_c0_reverse_5f951
 + rxn03887_c0 = 0
 cpd00184_c0: - rxn01145_c0_reverse_a92f4 + rxn01145_c0
 - rxn12457_c0_reverse_2a98f + rxn12457_c0 = 0
 cpd02843_c0: + rxn02473_c0_reverse_9b509 - rxn02473_c0
 + rxn03135_c0_reverse_4b505 - rxn03135_c0 = 0
 cpd27341_c0: + rxn20526_c0_reverse_6eb70 - rxn20526_c0
 - rxn20547_c0_reverse_82a23 + rxn20547_c0 = 0
 cpd00241_c0: + rxn01351_c0_reverse_08d9b - rxn01351_c0
 + 0.202 rxn12360_c0_reverse_1fdbb - 0.202 rxn12360_c0
 + rxn01352_c0_reverse_998e4 - rxn01352_c0 - rxn01353_c0_reverse_ca66e
 + rxn01353_c0 = 0
 HOMOSERINE_DASH_LACTONE_Extraorganism: - rxn12373_c0_reverse_1319d
 + rxn12373_c0
 + EXF_DASH_HOMOSERINE_DASH_LACTONE_LBRACKET_Extraorganism_RBRACKET__reverse_f13db
 - EXF_DASH_HOMOSERINE_DASH_LACTONE_LBRACKET_Extraorganism_RBRACKET_ = 0
 cpd11479_c0: + rxn05330_c0_reverse_452b8 - rxn05330_c0
 + rxn05337_c0_reverse_c9ff5 - rxn05337_c0 = 0
 cpd00146_c0: + rxn01019_c0_reverse_56c77 - rxn01019_c0
 + rxn01018_c0_reverse_7ccc7 - rxn01018_c0 - rxn00414_c0_reverse_bab8c
 + rxn00414_c0 = 0
 cpd00810_c0: + rxn01362_c0_reverse_415bb - rxn01362_c0
 + rxn00710_c0_reverse_4581a - rxn00710_c0 = 0
 cpd00104_c0: - rxn17731_c0_reverse_a1749 + rxn17731_c0 = 0
 cpd00221_c0: - rxn01274_c0_reverse_3c82a + rxn01274_c0
 - rxn12366_c0_reverse_b6ba1 + rxn12366_c0 + rxn00500_c0_reverse_abe43
 - rxn00500_c0 + rxn08783_c0_reverse_99f14 - rxn08783_c0 = 0
 cpd11480_c0: + 0.56 rxn12330_c0_reverse_001d7 - 0.56 rxn12330_c0
 + rxn05331_c0_reverse_69940 - rxn05331_c0 + rxn05340_c0_reverse_36403
 - rxn05340_c0 = 0
 cpd00141_e0:
 + EXF_DASH_PROPIONATE_LBRACKET_Extraorganism_RBRACKET__reverse_3e236
 - EXF_DASH_PROPIONATE_LBRACKET_Extraorganism_RBRACKET_
 + rxn09172_c0_reverse_f3fe3 - rxn09172_c0 = 0
 cpd00226_c0: + rxn01297_c0_reverse_c2a85 - rxn01297_c0
 - rxn00836_c0_reverse_48e4c + rxn00836_c0 - rxn01299_c0_reverse_cdf8f
 + rxn01299_c0 = 0
 cpd00550_c0: + rxn00166_c0_reverse_693ae - rxn00166_c0
 - rxn08373_c0_reverse_c25dd + rxn08373_c0 = 0
 cpd12036_c0: + 0.03 rxn12192_c0_reverse_10826 - 0.03 rxn12192_c0
 - rxn41927_c0_reverse_ced6b + rxn41927_c0 = 0
 cpd00357_c0: - rxn01512_c0_reverse_5d6a2 + rxn01512_c0
 + 0.298 rxn12360_c0_reverse_1fdbb - 0.298 rxn12360_c0
 + rxn01675_c0_reverse_42827 - rxn01675_c0 + rxn09014_c0_reverse_95e82
 - rxn09014_c0 = 0
 cpd00236_c0: + DgoA_reverse_449c8 - DgoA + rxn01331_c0_reverse_39a94
 - rxn01331_c0 + rxn01332_c0_reverse_f9f28 - rxn01332_c0
 - rxn01333_c0_reverse_15140 + rxn01333_c0 - rxn00785_c0_reverse_f6e32
 + rxn00785_c0 = 0
 cpd02701_c0: - rxn02312_c0_reverse_64ca4 + rxn02312_c0
 + UNBAL_DASH_S_DASH_ADENOSYL_DASH_4_DASH_METHYLTHIO_DASH_2_DASH_OXOBUTANOATE_reverse_4cafe
 - UNBAL_DASH_S_DASH_ADENOSYL_DASH_4_DASH_METHYLTHIO_DASH_2_DASH_OXOBUTANOATE
 = 0
 cpd16631_c0: + rxn12278_c0_reverse_13f19 - rxn12278_c0
 - rxn12281_c0_reverse_43b2b + rxn12281_c0 = 0
 cpd00220_c0: + rxn00392_c0_reverse_24c76 - rxn00392_c0
 - rxn00048_c0_reverse_70384 + rxn00048_c0 = 0
 cpd00764_c0: - rxn02312_c0_reverse_64ca4 + rxn02312_c0
 + rxn02277_c0_reverse_c3e02 - rxn02277_c0 = 0
 cpd03526_c0: + rxn03422_c0_reverse_84b00 - rxn03422_c0
 - rxn02944_c0_reverse_14577 + rxn02944_c0 = 0
 cpd00521_c0: - rxn01997_c0_reverse_e1a54 + rxn01997_c0
 + rxn02000_c0_reverse_38fff - rxn02000_c0 = 0
 GLUCONATE_Periplasm: 0 rxn12357_c0 = 0
 cpd00638_c0: - rxn02155_c0_reverse_fd760 + rxn02155_c0
 + rxn00190_c0_reverse_12593 - rxn00190_c0 = 0
 cpd00652_c0: - rxn08581_c0_reverse_5e8b6 + rxn08581_c0
 + rxn03887_c0_reverse_5f951 - rxn03887_c0 = 0
 cpd11462_c0: + 0.2 GROWTH_DASH_RXN_reverse_6bca6 - 0.2 GROWTH_DASH_RXN
 - 0.319 rxn12361_c0_reverse_35c09 + 0.319 rxn12361_c0 = 0
 cpd14937_c0: - rxn08053_c0_reverse_6b9e0 + rxn08053_c0
 - rxn07574_c0_reverse_11452 + rxn07574_c0 = 0
 cpd12229_c0: - rxn44292_c0_reverse_16d1f + rxn44292_c0
 + 0.05 rxn12192_c0_reverse_10826 - 0.05 rxn12192_c0 = 0
 cpd00145_c0: - rxn01011_c0_reverse_0f4e2 + rxn01011_c0
 + rxn01015_c0_reverse_329e1 - rxn01015_c0 = 0
 cpd16612_c0: + rxn12312_c0_reverse_ab1d2 - rxn12312_c0
 - rxn12313_c0_reverse_56e11 + rxn12313_c0 = 0
 cpd00742_c0: + rxn00002_c0_reverse_34776 - rxn00002_c0 = 0
 THR_Extraorganism:
 + EXF_DASH_THR_LBRACKET_Extraorganism_RBRACKET__reverse_9bcc9
 - EXF_DASH_THR_LBRACKET_Extraorganism_RBRACKET_
 - rxn12456_c0_reverse_c6965 + rxn12456_c0 = 0
 cpd11420_c0: + rxn06075_c0_reverse_62c9c - rxn06075_c0
 - rxn05256_c0_reverse_351cd + rxn05256_c0 - rxn05233_c0_reverse_e7700
 + rxn05233_c0 + rxn05289_c0_reverse_06e74 - rxn05289_c0
 + rxn06076_c0_reverse_25cbd - rxn06076_c0 - rxn05231_c0_reverse_2f4e0
 + rxn05231_c0 = 0
 cpd15378_c0: + rxn12239_c0_reverse_a1aee - rxn12239_c0
 - rxn12376_c0_reverse_6d0eb + rxn12376_c0 - rxn09310_c0_reverse_1afad
 + rxn09310_c0 - rxn12238_c0_reverse_7d85b + rxn12238_c0 = 0
 cpd02851_c0: + rxn03135_c0_reverse_4b505 - rxn03135_c0
 - rxn03136_c0_reverse_374cf + rxn03136_c0 + rxn03137_c0_reverse_91072
 - rxn03137_c0 = 0
 cpd03709_c0: + rxn02107_c0_reverse_9028d - rxn02107_c0
 - rxn12298_c0_reverse_6acb7 + rxn12298_c0 = 0
 cpd16637_c0: + rxn12355_c0_reverse_ab404 - rxn12355_c0
 - rxn12356_c0_reverse_073a5 + rxn12356_c0 = 0
 cpd11470_c0: + rxn12336_c0_reverse_cf461 - rxn12336_c0
 + rxn05325_c0_reverse_f2da0 - rxn05325_c0 + rxn05343_c0_reverse_aba9f
 - rxn05343_c0 = 0
 cpd00053_e0:
 + EXF_DASH_GLN_LBRACKET_Extraorganism_RBRACKET__reverse_5f281
 - EXF_DASH_GLN_LBRACKET_Extraorganism_RBRACKET_
 + rxn08625_c0_reverse_90fe8 - rxn08625_c0 = 0
 cpd16654_c0: + rxn12500_c0_reverse_2c526 - rxn12500_c0
 - rxn12444_c0_reverse_796b0 + rxn12444_c0 = 0
 cpd01620_c0: + rxn02774_c0_reverse_0d621 - rxn02774_c0
 - rxn05005_c0_reverse_b93fa + rxn05005_c0 = 0
 cpd16666_c0: + rxn12229_c0_reverse_b8ec2 - rxn12229_c0 = 0
 FRUCTOSE_DASH_16_DASH_DIPHOSPHATE_Cytosol: - rxn01492_c0_reverse_94799
 + rxn01492_c0 + rxn00786_c0_reverse_4b362 - rxn00786_c0
 + rxn00549_c0_reverse_1ff19 - rxn00549_c0 = 0
 cpd00533_c0: - rxn01219_c0_reverse_8a3a4 + rxn01219_c0
 + rxn06076_c0_reverse_25cbd - rxn06076_c0 + rxn01673_c0_reverse_f736f
 - rxn01673_c0 = 0
 cpd00924_c0: + rxn00095_c0_reverse_81e8f - rxn00095_c0 = 0
 cpd02465_c0: + rxn02929_c0_reverse_c7e84 - rxn02929_c0
 + rxn03031_c0_reverse_c2742 - rxn03031_c0 = 0
 cpd11579_e0:
 + EXF_DASH_ETHANESULFONATE_LBRACKET_Extraorganism_RBRACKET__reverse_b3ddd
 - EXF_DASH_ETHANESULFONATE_LBRACKET_Extraorganism_RBRACKET_
 + rxn05552_c0_reverse_e1fec - rxn05552_c0 = 0
 cpd00035_e0:
 + EXF_DASH_L_DASH_ALPHA_DASH_ALANINE_LBRACKET_Extraorganism_RBRACKET__reverse_bdf85
 - EXF_DASH_L_DASH_ALPHA_DASH_ALANINE_LBRACKET_Extraorganism_RBRACKET_
 + rxn05215_c0_reverse_6ef11 - rxn05215_c0 = 0
 cpd16600_c0: + rxn12359_c0_reverse_289a6 - rxn12359_c0
 - rxn12350_c0_reverse_31a51 + rxn12350_c0 - rxn12357_c0_reverse_bbe8a
 + rxn12357_c0 = 0
 DEMETHYLMENAQUINONE_Cytosol: + rxn08130_c0_reverse_96dfb - rxn08130_c0
 = 0
 cpd28239_c0: - 0.01 rxn12192_c0_reverse_10826 + 0.01 rxn12192_c0
 + rxn46484_c0_reverse_80bc7 - rxn46484_c0 = 0
 cpd12228_c0: + 0.01 rxn12192_c0_reverse_10826 - 0.01 rxn12192_c0
 - rxn40608_c0_reverse_36c97 + rxn40608_c0 = 0
 cpd02552_c0: - rxn01917_c0_reverse_8a0d8 + rxn01917_c0
 - rxn02465_c0_reverse_3e5e6 + rxn02465_c0 = 0
 cpd00052_c0: + rxn06043_c0_reverse_57cb0 - rxn06043_c0
 + rxn00367_c0_reverse_8ab6d - rxn00367_c0 + rxn02405_c0_reverse_c0fb5
 - rxn02405_c0 - rxn00412_c0_reverse_f611b + rxn00412_c0
 + rxn09177_c0_reverse_ef483 - rxn09177_c0
 + 0.299 rxn12361_c0_reverse_35c09 - 0.299 rxn12361_c0
 - rxn00409_c0_reverse_250bc + rxn00409_c0 + rxn03907_c0_reverse_daf14
 - rxn03907_c0 = 0
 cpd00053_c0: + rxn01257_c0_reverse_f67a1 - rxn01257_c0
 - rxn06619_c0_reverse_9faa5 + rxn06619_c0 + rxn00555_c0_reverse_e0f3c
 - rxn00555_c0 - rxn03135_c0_reverse_4b505 + rxn03135_c0
 + rxn00917_c0_reverse_35aaa - rxn00917_c0 + rxn00412_c0_reverse_f611b
 - rxn00412_c0 - rxn00790_c0_reverse_86aeb + rxn00790_c0
 + rxn41902_c0_reverse_1375a - rxn41902_c0 + rxn00727_c0_reverse_7475f
 - rxn00727_c0 + rxn00189_c0_reverse_e4fb9 - rxn00189_c0
 - rxn00085_c0_reverse_ae294 + rxn00085_c0 + rxn00414_c0_reverse_bab8c
 - rxn00414_c0 - rxn08625_c0_reverse_90fe8 + rxn08625_c0
 + rxn03084_c0_reverse_df786 - rxn03084_c0 + rxn00190_c0_reverse_12593
 - rxn00190_c0 - rxn00187_c0_reverse_1628c + rxn00187_c0 = 0
 cpd16649_c0: + rxn12258_c0_reverse_90736 - rxn12258_c0
 - rxn12261_c0_reverse_cc8e1 + rxn12261_c0 = 0
 cpd00932_c0: - rxn02476_c0_reverse_8b374 + rxn02476_c0
 + rxn01255_c0_reverse_c1b6a - rxn01255_c0 = 0
 cpd00048_c0: - rxn12369_c0_reverse_942cb + rxn12369_c0
 - rxn00925_c0_reverse_da2c8 + rxn00925_c0 - rxn05153_c0_reverse_4452f
 + rxn05153_c0 + rxn00379_c0_reverse_79b90 - rxn00379_c0 = 0
 cpd00327_c0: + rxn08053_c0_reverse_6b9e0 - rxn08053_c0
 + rxn08444_c0_reverse_f6c59 - rxn08444_c0 - rxn09449_c0_reverse_0b61b
 + rxn09449_c0 + 0.06 rxn12343_c0_reverse_049b6 - 0.06 rxn12343_c0 = 0
 cpd00033_c0: - rxn12215_c0_reverse_68c5f + rxn12215_c0
 - rxn00433_c0_reverse_fd8dd + rxn00433_c0 - rxn05735_c0_reverse_f8529
 + rxn05735_c0 + rxn00351_c0_reverse_cfbb1 - rxn00351_c0
 + rxn46689_c0_reverse_10181 - rxn46689_c0 + rxn02895_c0_reverse_ccce2
 - rxn02895_c0 - rxn05582_c0_reverse_52f81 + rxn05582_c0
 + rxn00692_c0_reverse_2db83 - rxn00692_c0 = 0
 cpd14956_c0: - rxn12336_c0_reverse_cf461 + rxn12336_c0 = 0
 cpd11469_c0: + rxn12308_c0_reverse_8ff5e - rxn12308_c0
 - rxn05331_c0_reverse_69940 + rxn05331_c0 - rxn05324_c0_reverse_b041c
 + rxn05324_c0 = 0
 cpd00023_c0: - rxn01257_c0_reverse_f67a1 + rxn01257_c0
 - rxn00504_c0_reverse_5bbb1 + rxn00504_c0 + rxn00193_c0_reverse_274c9
 - rxn00193_c0 - rxn05036_c0_reverse_a2fdd + rxn05036_c0
 + rxn06619_c0_reverse_9faa5 - rxn06619_c0 - rxn00291_c0_reverse_dab3b
 + rxn00291_c0 - rxn00555_c0_reverse_e0f3c + rxn00555_c0
 - rxn00191_c0_reverse_beaba + rxn00191_c0 + rxn04786_c0_reverse_63c31
 - rxn04786_c0 + rxn03135_c0_reverse_4b505 - rxn03135_c0
 + rxn00184_c0_reverse_bf801 - rxn00184_c0 - rxn00917_c0_reverse_35aaa
 + rxn00917_c0 - rxn02320_c0_reverse_9f689 + rxn02320_c0
 - rxn12370_c0_reverse_7557c + rxn12370_c0 - rxn01204_c0_reverse_2bd15
 + rxn01204_c0 - rxn03087_c0_reverse_55192 + rxn03087_c0
 - rxn05298_c0_reverse_0b121 + rxn05298_c0 - rxn05146_c0_reverse_e327d
 + rxn05146_c0 - rxn00412_c0_reverse_f611b + rxn00412_c0
 - rxn01575_c0_reverse_06d3d + rxn01575_c0 + rxn47732_c0_reverse_706b4
 - rxn47732_c0 - rxn00260_c0_reverse_b9076 + rxn00260_c0
 + rxn00790_c0_reverse_86aeb - rxn00790_c0 - rxn00727_c0_reverse_7475f
 + rxn00727_c0 + 2 rxn00689_c0_reverse_da455 - 2 rxn00689_c0
 - rxn00806_c0_reverse_4d986 + rxn00806_c0 + rxn01636_c0_reverse_84dff
 - rxn01636_c0 - rxn00527_c0_reverse_08f10 + rxn00527_c0
 - rxn00493_c0_reverse_d7e65 + rxn00493_c0 - rxn00903_c0_reverse_8c60f
 + rxn00903_c0 + rxn01603_c0_reverse_0e247 - rxn01603_c0
 - rxn01637_c0_reverse_b3a28 + rxn01637_c0 - rxn00189_c0_reverse_e4fb9
 + rxn00189_c0 - rxn03445_c0_reverse_92435 + rxn03445_c0
 + rxn00179_c0_reverse_0d78e - rxn00179_c0 + 2 rxn00085_c0_reverse_ae294
 - 2 rxn00085_c0 + rxn00646_c0_reverse_c5e5a - rxn00646_c0
 - rxn00414_c0_reverse_bab8c + rxn00414_c0 + rxn00192_c0_reverse_18e72
 - rxn00192_c0 - rxn02914_c0_reverse_5766b + rxn02914_c0
 - rxn02944_c0_reverse_14577 + rxn02944_c0 - rxn03084_c0_reverse_df786
 + rxn03084_c0 - rxn00190_c0_reverse_12593 + rxn00190_c0
 + rxn00187_c0_reverse_1628c - rxn00187_c0 = 0
 ACYL_DASH_SN_DASH_GLYCEROL_DASH_3P_TAG_Cytosol:
 - GLYCEROL_DASH_3_DASH_P_DASH_ACYLTRANSFER_DASH_TAG_DASH_RXN_reverse_5caf4
 + GLYCEROL_DASH_3_DASH_P_DASH_ACYLTRANSFER_DASH_TAG_DASH_RXN
 + rxn10204_c0_reverse_e1ced - rxn10204_c0 = 0
 cpd11490_c0: - rxn05341_c0_reverse_c963e + rxn05341_c0
 - rxn05350_c0_reverse_79ec3 + rxn05350_c0 = 0
 cpd11464_c0: + rxn05346_c0_reverse_53599 - rxn05346_c0
 + rxn05322_c0_reverse_fab80 - rxn05322_c0 = 0
 cpd11579_c0: + rxn08469_c0_reverse_dae27 - rxn08469_c0
 - rxn05552_c0_reverse_e1fec + rxn05552_c0 = 0
 cpd03125_c0: - rxn03250_c0_reverse_5161e + rxn03250_c0
 - rxn03251_c0_reverse_f2f8c + rxn03251_c0 = 0
 cpd00117_e0: - 0.8 rxn12306_c0_reverse_01ca5 + 0.8 rxn12306_c0
 + rxn08302_c0_reverse_051d3 - rxn08302_c0
 + EXF_DASH_D_DASH_ALANINE_LBRACKET_Extraorganism_RBRACKET__reverse_4e9d9
 - EXF_DASH_D_DASH_ALANINE_LBRACKET_Extraorganism_RBRACKET_ = 0
 cpd16623_c0: - rxn12319_c0_reverse_37c95 + rxn12319_c0
 + rxn12318_c0_reverse_497ba - rxn12318_c0 = 0
 cpd01947_e0:
 + EXF_DASH_BUTANEDIOL_LBRACKET_Extraorganism_RBRACKET__reverse_bd15d
 - EXF_DASH_BUTANEDIOL_LBRACKET_Extraorganism_RBRACKET_
 + rxn11322_c0_reverse_3c843 - rxn11322_c0 = 0
 cpd16627_c0: + rxn12275_c0_reverse_d61b1 - rxn12275_c0
 - rxn12276_c0_reverse_4b77d + rxn12276_c0
 + 0.315 rxn12349_c0_reverse_44e0f - 0.315 rxn12349_c0
 + rxn12321_c0_reverse_19324 - rxn12321_c0
 + 0.052 rxn12343_c0_reverse_049b6 - 0.052 rxn12343_c0
 + rxn12354_c0_reverse_913b8 - rxn12354_c0 - rxn12280_c0_reverse_423fc
 + rxn12280_c0 = 0
 cpd00198_c0: - rxn01116_c0_reverse_042bd + rxn01116_c0
 - rxn00785_c0_reverse_f6e32 + rxn00785_c0 - rxn01200_c0_reverse_327cb
 + rxn01200_c0 = 0
 cpd16608_c0: + rxn12314_c0_reverse_d6204 - rxn12314_c0
 - rxn12308_c0_reverse_8ff5e + rxn12308_c0 = 0
 cpd00321_c0: - rxn01571_c0_reverse_2e910 + rxn01571_c0
 + rxn04024_c0_reverse_98aa9 - rxn04024_c0 = 0
 cpd02095_c0: - rxn04786_c0_reverse_63c31 + rxn04786_c0
 + rxn07465_c0_reverse_a8c94 - rxn07465_c0 = 0
 cpd16639_c0: - rxn12355_c0_reverse_ab404 + rxn12355_c0
 + 0.473 rxn12350_c0_reverse_31a51 - 0.473 rxn12350_c0 = 0
 cpd11481_c0: + rxn05336_c0_reverse_6ca64 - rxn05336_c0
 + rxn05332_c0_reverse_138b1 - rxn05332_c0 = 0
 cpd16635_c0: - rxn12279_c0_reverse_d5b2d + rxn12279_c0
 + rxn12280_c0_reverse_423fc - rxn12280_c0 = 0
 cpd14939_c0: + rxn07578_c0_reverse_77323 - rxn07578_c0
 - rxn07577_c0_reverse_263c7 + rxn07577_c0 = 0
 cpd00658_c0: - rxn01258_c0_reverse_27471 + rxn01258_c0
 + rxn02177_c0_reverse_3e2ec - rxn02177_c0 = 0
 BENZOATE_Extraorganism:
 + EXF_DASH_BENZOATE_LBRACKET_Extraorganism_RBRACKET__reverse_9e032
 - EXF_DASH_BENZOATE_LBRACKET_Extraorganism_RBRACKET_
 + TRANS_DASH_RXNIM_DASH_5803_reverse_80e3e - TRANS_DASH_RXNIM_DASH_5803
 + rxn12435_c0_reverse_f0c8d - rxn12435_c0 = 0
 cpd03117_c0: - rxn03242_c0_reverse_47203 + rxn03242_c0
 - rxn03243_c0_reverse_6d279 + rxn03243_c0 = 0
 cpd11908_c0: + rxn06433_c0_reverse_b302b - rxn06433_c0
 - 0.04 rxn12192_c0_reverse_10826 + 0.04 rxn12192_c0 = 0
 cpd00032_c0: + rxn00251_c0_reverse_b1866 - rxn00251_c0
 - rxn00679_c0_reverse_243e0 + rxn00679_c0 - rxn08900_c0_reverse_a503b
 + rxn08900_c0 - rxn00248_c0_reverse_0818d + rxn00248_c0
 - rxn00260_c0_reverse_b9076 + rxn00260_c0 - rxn00256_c0_reverse_b1561
 + rxn00256_c0 - rxn00262_c0_reverse_9d1cf + rxn00262_c0
 + rxn00305_c0_reverse_b1f24 - rxn00305_c0 = 0
 TRIACYLGLYCEROL_W_Cytosol: + 0.002 GROWTH_DASH_RXN_reverse_6bca6
 - 0.002 GROWTH_DASH_RXN
 - 0.8205 TRIACYLGLYCEROL_W_DASH_RXN_reverse_c3da0
 + 0.8205 TRIACYLGLYCEROL_W_DASH_RXN = 0
 cpd00105_c0: - RXN0_DASH_366_reverse_21134 + RXN0_DASH_366
 - rxn26065_c0_reverse_d1734 + rxn26065_c0 + rxn00772_c0_reverse_4e4e9
 - rxn00772_c0 - rxn01226_c0_reverse_31282 + rxn01226_c0
 - rxn01545_c0_reverse_d2776 + rxn01545_c0 - rxn19072_c0_reverse_37d07
 + rxn19072_c0 - rxn01299_c0_reverse_cdf8f + rxn01299_c0 = 0
 cpd00082_e0: + rxn05560_c0_reverse_662b5 - rxn05560_c0
 + EXF_DASH_FRU_LBRACKET_Extraorganism_RBRACKET__reverse_3f79b
 - EXF_DASH_FRU_LBRACKET_Extraorganism_RBRACKET_ = 0
 cpd16613_c0: - rxn12267_c0_reverse_250c9 + rxn12267_c0
 + rxn12268_c0_reverse_b532f - rxn12268_c0 = 0
 cpd00050_c0: + rxn00122_c0_reverse_784de - rxn00122_c0
 - rxn08469_c0_reverse_dae27 + rxn08469_c0 - rxn03974_c0_reverse_bfeb1
 + rxn03974_c0 + 0.07 rxn12496_c0_reverse_ff0a4 - 0.07 rxn12496_c0
 - rxn00392_c0_reverse_24c76 + rxn00392_c0 - rxn12232_c0_reverse_a85f0
 + rxn12232_c0 = 0
 cpd16662_c0: + 0.041 GROWTH_DASH_RXN_reverse_6bca6
 - 0.041 GROWTH_DASH_RXN - 0.8359 rxn12307_c0_reverse_cfe82
 + 0.8359 rxn12307_c0 = 0
 cpd00360_e0: + rxn12429_c0_reverse_17c11 - rxn12429_c0
 + EXF_DASH_PURINE_LBRACKET_Extraorganism_RBRACKET__reverse_648c6
 - EXF_DASH_PURINE_LBRACKET_Extraorganism_RBRACKET_ = 0
 cpd00249_c0: - rxn12460_c0_reverse_fb4bd + rxn12460_c0
 + rxn01226_c0_reverse_31282 - rxn01226_c0 - rxn00708_c0_reverse_fe989
 + rxn00708_c0 - rxn01368_c0_reverse_895ab + rxn01368_c0 = 0
 cpd00286_c0: + rxn03904_c0_reverse_f0a70 - rxn03904_c0
 - rxn03901_c0_reverse_d694e + rxn03901_c0 - rxn03900_c0_reverse_81cc8
 + rxn03900_c0 = 0
 cpd11476_c0: + 0.18 rxn12331_c0_reverse_d8803 - 0.18 rxn12331_c0
 + 0.1 rxn12338_c0_reverse_0086a - 0.1 rxn12338_c0
 + rxn05328_c0_reverse_20c79 - rxn05328_c0 + rxn06033_c0_reverse_b392c
 - rxn06033_c0 + 0.717 rxn12342_c0_reverse_be5cf - 0.717 rxn12342_c0
 + rxn05460_c0_reverse_8c2ca - rxn05460_c0 = 0
 cpd00331_c0: - rxn12500_c0_reverse_2c526 + rxn12500_c0
 - rxn00974_c0_reverse_d835d + rxn00974_c0 - rxn01388_c0_reverse_67d04
 + rxn01388_c0 = 0
 cpd00309_c0: + rxn01522_c0_reverse_e9b47 - rxn01522_c0
 - rxn01297_c0_reverse_c2a85 + rxn01297_c0 - rxn12440_c0_reverse_5f0f3
 + rxn12440_c0 - rxn01544_c0_reverse_f6321 + rxn01544_c0
 - rxn01225_c0_reverse_52863 + rxn01225_c0 - rxn01545_c0_reverse_d2776
 + rxn01545_c0 = 0
 cpd00092_c0: + rxn00776_c0_reverse_bfadd - rxn00776_c0
 - rxn00717_c0_reverse_0af42 + rxn00717_c0 - rxn01226_c0_reverse_31282
 + rxn01226_c0 - rxn05197_c0_reverse_1fd1b + rxn05197_c0
 - rxn00711_c0_reverse_2f39d + rxn00711_c0 = 0
 cpd00162_e0:
 + EXF_DASH_ETHANOL_DASH_AMINE_LBRACKET_Extraorganism_RBRACKET__reverse_6936a
 - EXF_DASH_ETHANOL_DASH_AMINE_LBRACKET_Extraorganism_RBRACKET_
 + rxn12419_c0_reverse_f7691 - rxn12419_c0 = 0
 cpd00095_c0: - rxn00611_c0_reverse_350e3 + rxn00611_c0
 - rxn00747_c0_reverse_9d23d + rxn00747_c0 - rxn08556_c0_reverse_cd61c
 + rxn08556_c0 - rxn00786_c0_reverse_4b362 + rxn00786_c0
 - rxn02988_c0_reverse_371a0 + rxn02988_c0 = 0
 cpd27101_c0: - 0.04 rxn12192_c0_reverse_10826 + 0.04 rxn12192_c0
 + rxn47732_c0_reverse_706b4 - rxn47732_c0 + rxn19846_c0_reverse_1ddb1
 - rxn19846_c0 = 0
 cpd11421_c0: - rxn06075_c0_reverse_62c9c + rxn06075_c0
 + rxn05256_c0_reverse_351cd - rxn05256_c0 + rxn05233_c0_reverse_e7700
 - rxn05233_c0 - rxn05289_c0_reverse_06e74 + rxn05289_c0
 - rxn06076_c0_reverse_25cbd + rxn06076_c0 + rxn05231_c0_reverse_2f4e0
 - rxn05231_c0 = 0
 CPD_DASH_650_Cytosol: + rxn01451_c0_reverse_007d5 - rxn01451_c0
 + rxn02167_c0_reverse_8528a - rxn02167_c0 = 0
 cpd00136_c0: + rxn00962_c0_reverse_0f878 - rxn00962_c0
 + rxn03893_c0_reverse_f6334 - rxn03893_c0 - rxn12433_c0_reverse_b9993
 + rxn12433_c0 + rxn00966_c0_reverse_717ad - rxn00966_c0
 - rxn00957_c0_reverse_b25dd + rxn00957_c0 = 0
 cpd00065_e0: + rxn12458_c0_reverse_16d51 - rxn12458_c0
 + EXF_DASH_TRP_LBRACKET_Extraorganism_RBRACKET__reverse_c80fc
 - EXF_DASH_TRP_LBRACKET_Extraorganism_RBRACKET_ = 0
 cpd16610_c0: - rxn12312_c0_reverse_ab1d2 + rxn12312_c0
 + rxn12311_c0_reverse_8c971 - rxn12311_c0 = 0
 cpd00340_c0: - rxn01634_c0_reverse_88f19 + rxn01634_c0
 + rxn00196_c0_reverse_3cc98 - rxn00196_c0 = 0
 cpd00498_c0: + ACETOOHBUTREDUCTOISOM_DASH_RXN_reverse_797f7
 - ACETOOHBUTREDUCTOISOM_DASH_RXN - rxn08043_c0_reverse_11b99
 + rxn08043_c0 = 0
 cpd07333_e0:
 + EXF_DASH_CPDIM_DASH_6116_LBRACKET_Extraorganism_RBRACKET__reverse_21256
 - EXF_DASH_CPDIM_DASH_6116_LBRACKET_Extraorganism_RBRACKET_
 + rxn12412_c0_reverse_78db1 - rxn12412_c0 = 0
 cpd00007_c0: + rxn00589_c0_reverse_9e00a - rxn00589_c0
 + rxn12219_c0_reverse_43385 - rxn12219_c0 + rxn03897_c0_reverse_ad3b1
 - rxn03897_c0 + rxn00595_c0_reverse_f4370 - rxn00595_c0
 + rxn00962_c0_reverse_0f878 - rxn00962_c0 + rxn08469_c0_reverse_dae27
 - rxn08469_c0 + 2 rxn02303_c0_reverse_3b873 - 2 rxn02303_c0
 + 0.5 rxn12295_c0_reverse_64262 - 0.5 rxn12295_c0
 + rxn00433_c0_reverse_fd8dd - rxn00433_c0 + rxn03586_c0_reverse_bec9c
 - rxn03586_c0 + rxn09042_c0_reverse_0d1fb - rxn09042_c0
 + rxn12233_c0_reverse_9273a - rxn12233_c0 - rxn05468_c0_reverse_64ab5
 + rxn05468_c0 - rxn00006_c0_reverse_a6194 + rxn00006_c0
 + rxn00588_c0_reverse_90f98 - rxn00588_c0 - rxn00206_c0_reverse_a3678
 + rxn00206_c0 + rxn00208_c0_reverse_fda2f - rxn00208_c0
 + rxn00262_c0_reverse_9d1cf - rxn00262_c0
 + CYT_DASH_UBIQUINOL_DASH_OXID_DASH_D_DASH_RXN_reverse_59fbf
 - CYT_DASH_UBIQUINOL_DASH_OXID_DASH_D_DASH_RXN
 + rxn01360_c0_reverse_4b9bd - rxn01360_c0 + rxn01192_c0_reverse_012f5
 - rxn01192_c0 + rxn03630_c0_reverse_def42 - rxn03630_c0
 + rxn00209_c0_reverse_5689c - rxn00209_c0 + rxn20472_c0_reverse_e22eb
 - rxn20472_c0 + rxn03394_c0_reverse_6c71b - rxn03394_c0
 + rxn12494_c0_reverse_b1375 - rxn12494_c0 + rxn12232_c0_reverse_a85f0
 - rxn12232_c0 + rxn00338_c0_reverse_0c70e - rxn00338_c0 = 0
 cpd00616_c0: + rxn05036_c0_reverse_a2fdd - rxn05036_c0
 + rxn00525_c0_reverse_dab5c - rxn00525_c0 = 0
 cpd00064_e0:
 + EXF_DASH_L_DASH_ORNITHINE_LBRACKET_Extraorganism_RBRACKET__reverse_29859
 - EXF_DASH_L_DASH_ORNITHINE_LBRACKET_Extraorganism_RBRACKET_
 + rxn09048_c0_reverse_34b99 - rxn09048_c0 = 0
 cpd00307_e0:
 + EXF_DASH_CYTOSINE_LBRACKET_Extraorganism_RBRACKET__reverse_add6f
 - EXF_DASH_CYTOSINE_LBRACKET_Extraorganism_RBRACKET_
 + rxn12428_c0_reverse_d9987 - rxn12428_c0 = 0
 cpd00070_c0: - rxn12257_c0_reverse_ff5eb + rxn12257_c0
 - rxn00533_c0_reverse_dfaec + rxn00533_c0 + rxn05465_c0_reverse_93e79
 - rxn05465_c0 = 0
 cpd11487_c0: - rxn05338_c0_reverse_75efd + rxn05338_c0
 - rxn05343_c0_reverse_aba9f + rxn05343_c0 = 0
 CAFFEATE_Periplasm: 0 rxn12357_c0 = 0
 cpd03279_e0:
 + EXF_DASH_DEOXYINOSINE_LBRACKET_Extraorganism_RBRACKET__reverse_b6071
 - EXF_DASH_DEOXYINOSINE_LBRACKET_Extraorganism_RBRACKET_
 + rxn12417_c0_reverse_de9ac - rxn12417_c0 = 0
 cpd00115_c0: + rxn09013_c0_reverse_90828 - rxn09013_c0
 - rxn00839_c0_reverse_e1122 + rxn00839_c0
 + 0.298 rxn12360_c0_reverse_1fdbb - 0.298 rxn12360_c0 = 0
 cpd00355_c0: - rxn08995_c0_reverse_602b3 + rxn08995_c0
 + rxn00941_c0_reverse_91e08 - rxn00941_c0 + rxn00105_c0_reverse_b71d3
 - rxn00105_c0 = 0
 cpd00203_c0: - rxn00781_c0_reverse_762ea + rxn00781_c0
 - rxn01100_c0_reverse_2daa7 + rxn01100_c0 = 0
 cpd00141_c0: + rxn00985_c0_reverse_5537f - rxn00985_c0
 - rxn09172_c0_reverse_f3fe3 + rxn09172_c0 + rxn00674_c0_reverse_a763e
 - rxn00674_c0 - rxn12230_c0_reverse_8eed2 + rxn12230_c0 = 0
 cpd11489_c0: - rxn05348_c0_reverse_b4227 + rxn05348_c0
 - rxn05340_c0_reverse_36403 + rxn05340_c0 = 0
 cpd02894_c0: + rxn02305_c0_reverse_6ed69 - rxn02305_c0
 - rxn03108_c0_reverse_afd32 + rxn03108_c0 = 0
 cpd00120_c0: + rxn00875_c0_reverse_62069 - rxn00875_c0
 + rxn00872_c0_reverse_5565a - rxn00872_c0 + rxn00874_c0_reverse_bd4de
 - rxn00874_c0 = 0
 cpd01326_c0: + 0.05 rxn12192_c0_reverse_10826 - 0.05 rxn12192_c0
 - rxn06442_c0_reverse_c8767 + rxn06442_c0 = 0
 cpd00119_c0: - rxn00863_c0_reverse_45538 + rxn00863_c0
 + rxn40608_c0_reverse_36c97 - rxn40608_c0 + rxn00867_c0_reverse_81169
 - rxn00867_c0 = 0
 cpd00202_c0: + rxn01213_c0_reverse_698a2 - rxn01213_c0
 + rxn04996_c0_reverse_f7c7e - rxn04996_c0 = 0
 cpd00719_c0: - rxn00638_c0_reverse_998e3 + rxn00638_c0 = 0
 cpd00061_c0: + rxn05560_c0_reverse_662b5 - rxn05560_c0
 + rxn02476_c0_reverse_8b374 - rxn02476_c0 - rxn00251_c0_reverse_b1866
 + rxn00251_c0 - rxn00459_c0_reverse_7f5be + rxn00459_c0
 + rxn01332_c0_reverse_f9f28 - rxn01332_c0 + rxn00461_c0_reverse_73c3f
 - rxn00461_c0 - rxn00147_c0_reverse_87430 + rxn00147_c0
 - rxn02331_c0_reverse_1f746 + rxn02331_c0 - rxn00305_c0_reverse_b1f24
 + rxn00305_c0 = 0
 cpd00075_c0: - rxn12498_c0_reverse_04855 + rxn12498_c0
 - rxn12295_c0_reverse_64262 + rxn12295_c0 + rxn08999_c0_reverse_80be1
 - rxn08999_c0 - rxn00568_c0_reverse_a1c6b + rxn00568_c0 = 0
 cpd00056_c0: - rxn00438_c0_reverse_21406 + rxn00438_c0
 + 0.08 rxn12496_c0_reverse_ff0a4 - 0.08 rxn12496_c0 = 0
 cpd01507_c0: - rxn04750_c0_reverse_2a2a6 + rxn04750_c0
 - rxn02143_c0_reverse_9704c + rxn02143_c0 - rxn00598_c0_reverse_faf9e
 + rxn00598_c0 = 0
 cpd16638_c0: - rxn12282_c0_reverse_ba0b6 + rxn12282_c0
 + rxn12281_c0_reverse_43b2b - rxn12281_c0
 + 0.445 rxn12349_c0_reverse_44e0f - 0.445 rxn12349_c0
 + rxn12329_c0_reverse_80a40 - rxn12329_c0
 + 0.149 rxn12343_c0_reverse_049b6 - 0.149 rxn12343_c0
 + rxn12356_c0_reverse_073a5 - rxn12356_c0 = 0
 cpd00982_c0: - rxn12275_c0_reverse_d61b1 + rxn12275_c0
 - rxn12286_c0_reverse_d1c2e + rxn12286_c0 - rxn12253_c0_reverse_f6986
 + rxn12253_c0 - rxn01802_c0_reverse_9e3ef + rxn01802_c0
 - rxn10770_c0_reverse_d53c0 + rxn10770_c0 - rxn12270_c0_reverse_64c08
 + rxn12270_c0 - rxn12228_c0_reverse_9e732 + rxn12228_c0
 - rxn08053_c0_reverse_6b9e0 + rxn08053_c0 + rxn10126_c0_reverse_95955
 - rxn10126_c0 - rxn12261_c0_reverse_cc8e1 + rxn12261_c0
 - rxn03251_c0_reverse_f2f8c + rxn03251_c0 - rxn08556_c0_reverse_cd61c
 + rxn08556_c0 - rxn02720_c0_reverse_8aa9d + rxn02720_c0
 - rxn02679_c0_reverse_bdea5 + rxn02679_c0 - rxn02803_c0_reverse_c1dd1
 + rxn02803_c0 - rxn12281_c0_reverse_43b2b + rxn12281_c0
 - rxn12264_c0_reverse_3cc11 + rxn12264_c0 - rxn04752_c0_reverse_3bf35
 + rxn04752_c0 - rxn09188_c0_reverse_a86f7 + rxn09188_c0
 - rxn00872_c0_reverse_5565a + rxn00872_c0 - rxn03253_c0_reverse_89a23
 + rxn03253_c0 - rxn00946_c0_reverse_db319 + rxn00946_c0
 - rxn12249_c0_reverse_80b67 + rxn12249_c0 - rxn08783_c0_reverse_99f14
 + rxn08783_c0 - rxn08291_c0_reverse_9e151 + rxn08291_c0 = 0
 cpd27218_c0: - 0.01 rxn12192_c0_reverse_10826 + 0.01 rxn12192_c0
 + rxn40608_c0_reverse_36c97 - rxn40608_c0 = 0
 cpd11922_c0: + rxn44292_c0_reverse_16d1f - rxn44292_c0
 - 0.05 rxn12192_c0_reverse_10826 + 0.05 rxn12192_c0 = 0
 SHIKIMATE_Periplasm: 0 rxn12357_c0 = 0
 cpd02500_c0: + rxn12242_c0_reverse_4d875 - rxn12242_c0
 - rxn12240_c0_reverse_4cd56 + rxn12240_c0 = 0
 cpd16655_c0: + rxn12240_c0_reverse_4cd56 - rxn12240_c0
 - rxn12241_c0_reverse_bb72e + rxn12241_c0 = 0
 cpd00169_c0: + rxn01101_c0_reverse_5c292 - rxn01101_c0
 - rxn00779_c0_reverse_9042e + rxn00779_c0 + rxn01100_c0_reverse_2daa7
 - rxn01100_c0 - rxn01102_c0_reverse_e553b + rxn01102_c0
 - rxn01106_c0_reverse_bc17a + rxn01106_c0 = 0
 cpd00098_e0: + rxn08213_c0_reverse_3bf3a - rxn08213_c0
 + EXF_DASH_CHOLINE_LBRACKET_Extraorganism_RBRACKET__reverse_a3469
 - EXF_DASH_CHOLINE_LBRACKET_Extraorganism_RBRACKET_ = 0
 TOLUENE_Extraorganism:
 + EXF_DASH_TOLUENE_LBRACKET_Extraorganism_RBRACKET__reverse_e9ae8
 - EXF_DASH_TOLUENE_LBRACKET_Extraorganism_RBRACKET_
 + TRANS_DASH_RXNIM_DASH_5895_reverse_e3ee2 - TRANS_DASH_RXNIM_DASH_5895
 = 0
 cpd16656_c0: + rxn12248_c0_reverse_bd733 - rxn12248_c0
 - rxn12247_c0_reverse_78639 + rxn12247_c0 = 0
 cpd00222_c0: - rxn08610_c0_reverse_534ac + rxn08610_c0
 + rxn01277_c0_reverse_88251 - rxn01277_c0 - rxn12363_c0_reverse_7cafd
 + rxn12363_c0 + rxn01275_c0_reverse_57a94 - rxn01275_c0 = 0
 cpd00300_c0: - rxn01522_c0_reverse_e9b47 + rxn01522_c0 = 0
 cpd16614_c0: - rxn12314_c0_reverse_d6204 + rxn12314_c0
 + rxn12313_c0_reverse_56e11 - rxn12313_c0 = 0
 cpd02884_c0: - rxn00832_c0_reverse_d8a09 + rxn00832_c0
 - rxn03137_c0_reverse_91072 + rxn03137_c0 = 0
 cpd00143_c0: - rxn01000_c0_reverse_3c355 + rxn01000_c0
 - rxn00493_c0_reverse_d7e65 + rxn00493_c0 = 0
 cpd16654_e0:
 + EXF_DASH_CPD_DASH_3571_LBRACKET_Extraorganism_RBRACKET__reverse_06f01
 - EXF_DASH_CPD_DASH_3571_LBRACKET_Extraorganism_RBRACKET_
 + rxn12444_c0_reverse_796b0 - rxn12444_c0 = 0
 cpd00025_c0: - 2 rxn02303_c0_reverse_3b873 + 2 rxn02303_c0
 - rxn00433_c0_reverse_fd8dd + rxn00433_c0 + 2 rxn00006_c0_reverse_a6194
 - 2 rxn00006_c0 - rxn00206_c0_reverse_a3678 + rxn00206_c0
 - rxn00208_c0_reverse_fda2f + rxn00208_c0 - rxn00262_c0_reverse_9d1cf
 + rxn00262_c0 - rxn01360_c0_reverse_4b9bd + rxn01360_c0
 - rxn00209_c0_reverse_5689c + rxn00209_c0 + rxn00205_c0_reverse_490b1
 - rxn00205_c0 - rxn00338_c0_reverse_0c70e + rxn00338_c0 = 0
 cpd00101_c0: + rxn00770_c0_reverse_9f9ec - rxn00770_c0
 + rxn00776_c0_reverse_bfadd - rxn00776_c0 + rxn00777_c0_reverse_4ab24
 - rxn00777_c0 - rxn00772_c0_reverse_4e4e9 + rxn00772_c0
 - rxn01200_c0_reverse_327cb + rxn01200_c0 = 0
 cpd00197_c0: - rxn00962_c0_reverse_0f878 + rxn00962_c0
 - rxn03586_c0_reverse_bec9c + rxn03586_c0 - rxn12242_c0_reverse_4d875
 + rxn12242_c0 - rxn12246_c0_reverse_8216b + rxn12246_c0
 + rxn01192_c0_reverse_012f5 - rxn01192_c0 - rxn01188_c0_reverse_574aa
 + rxn01188_c0 = 0
 cpd00309_e0: + rxn12440_c0_reverse_5f0f3 - rxn12440_c0
 + EXF_DASH_XANTHINE_LBRACKET_Extraorganism_RBRACKET__reverse_cdba1
 - EXF_DASH_XANTHINE_LBRACKET_Extraorganism_RBRACKET_ = 0
 cpd00014_c0: + rxn00117_c0_reverse_96cd0 - rxn00117_c0
 - rxn06075_c0_reverse_62c9c + rxn06075_c0 - rxn00119_c0_reverse_29188
 + rxn00119_c0 - rxn03408_c0_reverse_f4fb2 + rxn03408_c0
 - 0.67 rxn12335_c0_reverse_6be8f + 0.67 rxn12335_c0
 - rxn12305_c0_reverse_13a69 + rxn12305_c0 - rxn00605_c0_reverse_b010b
 + rxn00605_c0 - rxn12340_c0_reverse_adc2f + rxn12340_c0
 - rxn03159_c0_reverse_808d3 + rxn03159_c0 = 0
 cpd11494_c0: + rxn05347_c0_reverse_39a4c - rxn05347_c0
 - rxn08861_c0_reverse_14032 + rxn08861_c0 = 0
 cpd11486_c0: - rxn05346_c0_reverse_53599 + rxn05346_c0
 - rxn05337_c0_reverse_c9ff5 + rxn05337_c0 = 0
 cpd22281_c0: - 0.03 rxn12192_c0_reverse_10826 + 0.03 rxn12192_c0
 + rxn41927_c0_reverse_ced6b - rxn41927_c0 = 0
 cpd11193_e0:
 + EXF_DASH_CPD_DASH_6501_LBRACKET_Extraorganism_RBRACKET__reverse_b2467
 - EXF_DASH_CPD_DASH_6501_LBRACKET_Extraorganism_RBRACKET_
 + rxn12408_c0_reverse_ba3b4 - rxn12408_c0 = 0
 cpd00793_c0: + rxn00438_c0_reverse_21406 - rxn00438_c0
 - rxn02305_c0_reverse_6ed69 + rxn02305_c0 = 0
 cpd00009_e0:
 + EXF_DASH_PI_LBRACKET_Extraorganism_RBRACKET__reverse_e1c06
 - EXF_DASH_PI_LBRACKET_Extraorganism_RBRACKET_
 + rxn12450_c0_reverse_bb1f6 - rxn12450_c0 + rxn05145_c0_reverse_604c0
 - rxn05145_c0 = 0
 cpd11422_c0: + rxn06138_c0_reverse_460eb - rxn06138_c0
 - rxn06139_c0_reverse_dfa8c + rxn06139_c0 - rxn10204_c0_reverse_e1ced
 + rxn10204_c0 = 0
 cpd00139_e0:
 + EXF_DASH_GLYCOLLATE_LBRACKET_Extraorganism_RBRACKET__reverse_7299f
 - EXF_DASH_GLYCOLLATE_LBRACKET_Extraorganism_RBRACKET_
 - rxn08653_c0_reverse_99b7d + rxn08653_c0 + rxn05470_c0_reverse_af18e
 - rxn05470_c0 = 0
 cpd02775_c0: + rxn03108_c0_reverse_afd32 - rxn03108_c0
 - rxn20643_c0_reverse_33af7 + rxn20643_c0 = 0
 cpd03446_c0: + rxn09042_c0_reverse_0d1fb - rxn09042_c0
 - rxn03395_c0_reverse_2cac4 + rxn03395_c0 = 0
 cpd22513_c0: + 0.149 rxn12307_c0_reverse_cfe82 - 0.149 rxn12307_c0
 - rxn19256_c0_reverse_fc363 + rxn19256_c0 = 0
 cpd00834_c0: - rxn02341_c0_reverse_1a6f7 + rxn02341_c0
 + rxn02175_c0_reverse_f2029 - rxn02175_c0 = 0
 cpd00214_e0:
 + EXF_DASH_C16_COLON_0_LBRACKET_Extraorganism_RBRACKET__reverse_e5998
 - EXF_DASH_C16_COLON_0_LBRACKET_Extraorganism_RBRACKET_
 + rxn12388_c0_reverse_3e38d - rxn12388_c0 = 0
 cpd00031_c0: + rxn05233_c0_reverse_e7700 - rxn05233_c0
 - rxn00239_c0_reverse_3a5f6 + rxn00239_c0
 - 1.66 rxn12335_c0_reverse_6be8f + 1.66 rxn12335_c0
 + rxn00237_c0_reverse_4cdeb - rxn00237_c0 - rxn00838_c0_reverse_57617
 + rxn00838_c0 + rxn00640_c0_reverse_e6d45 - rxn00640_c0
 - rxn00305_c0_reverse_b1f24 + rxn00305_c0 = 0
 cpd00428_c0: - rxn01834_c0_reverse_598cc + rxn01834_c0 = 0
 cpd14936_c0: + rxn12277_c0_reverse_25bb7 - rxn12277_c0
 + rxn07574_c0_reverse_11452 - rxn07574_c0 = 0
 cpd00134_c0: + rxn00943_c0_reverse_a6b46 - rxn00943_c0
 + rxn12352_c0_reverse_d2021 - rxn12352_c0 - rxn08767_c0_reverse_fed36
 + rxn08767_c0 + 0.24 rxn12349_c0_reverse_44e0f - 0.24 rxn12349_c0
 + 0.717 rxn12343_c0_reverse_049b6 - 0.717 rxn12343_c0
 + rxn00946_c0_reverse_db319 - rxn00946_c0 - rxn00947_c0_reverse_e410e
 + rxn00947_c0 = 0
 cpd16602_c0: - rxn12344_c0_reverse_75205 + rxn12344_c0
 - rxn12348_c0_reverse_6d0fb + rxn12348_c0 = 0
 WATER_Periplasm: 0 rxn12357_c0 = 0
 cpd00182_c0: - rxn00132_c0_reverse_3a5d8 + rxn00132_c0
 + rxn01137_c0_reverse_8e794 - rxn01137_c0 - rxn00141_c0_reverse_d1d0b
 + rxn00141_c0 + rxn19072_c0_reverse_37d07 - rxn19072_c0
 - rxn12381_c0_reverse_0ce91 + rxn12381_c0 = 0
 cpd12226_c0: + 0.04 rxn12192_c0_reverse_10826 - 0.04 rxn12192_c0
 - rxn47838_c0_reverse_a4405 + rxn47838_c0 = 0
 cpd00581_c0: - rxn00867_c0_reverse_81169 + rxn00867_c0 = 0
 cpd01982_c0: + rxn00790_c0_reverse_86aeb - rxn00790_c0
 + rxn02895_c0_reverse_ccce2 - rxn02895_c0 = 0
 cpd01947_c0: - rxn11322_c0_reverse_3c843 + rxn11322_c0
 + rxn02112_c0_reverse_c4928 - rxn02112_c0 = 0
 cpd00246_c0: - rxn12445_c0_reverse_79161 + rxn12445_c0
 - rxn01137_c0_reverse_8e794 + rxn01137_c0 - rxn00831_c0_reverse_384c0
 + rxn00831_c0 + rxn01299_c0_reverse_cdf8f - rxn01299_c0 = 0
 cpd00447_c0: - rxn10770_c0_reverse_d53c0 + rxn10770_c0
 + rxn01867_c0_reverse_ea907 - rxn01867_c0 = 0
 cpd00830_c0: + rxn00328_c0_reverse_2373d - rxn00328_c0 = 0
 cpd00229_c0: - rxn02504_c0_reverse_fb5ec + rxn02504_c0
 + rxn00979_c0_reverse_e9063 - rxn00979_c0 = 0
 cpd00013_e0: + rxn05466_c0_reverse_89e04 - rxn05466_c0
 + EXF_DASH_AMMONIUM_LBRACKET_Extraorganism_RBRACKET__reverse_b20c9
 - EXF_DASH_AMMONIUM_LBRACKET_Extraorganism_RBRACKET_ = 0
 cpd12105_c0: + 0.02 rxn12192_c0_reverse_10826 - 0.02 rxn12192_c0
 - rxn06443_c0_reverse_a6b8a + rxn06443_c0 = 0
 cpd00773_c0: + rxn02286_c0_reverse_e7172 - rxn02286_c0
 + rxn02285_c0_reverse_5c70a - rxn02285_c0 = 0
 cpd02498_c0: - rxn02186_c0_reverse_23de4 + rxn02186_c0
 + rxn15467_c0_reverse_81ce7 - rxn15467_c0 = 0
 cpd02611_c0: - rxn03638_c0_reverse_63c0e + rxn03638_c0
 + rxn00293_c0_reverse_820c7 - rxn00293_c0 = 0
 cpd03470_c0: - rxn02988_c0_reverse_371a0 + rxn02988_c0
 - rxn00338_c0_reverse_0c70e + rxn00338_c0 = 0
 cpd00626_c0: + rxn01997_c0_reverse_e1a54 - rxn01997_c0
 - rxn01675_c0_reverse_42827 + rxn01675_c0 = 0
 cpd14938_c0: - rxn05460_c0_reverse_8c2ca + rxn05460_c0
 + rxn07577_c0_reverse_263c7 - rxn07577_c0 = 0
 cpd16641_c0: - rxn12283_c0_reverse_fdf92 + rxn12283_c0
 + rxn12284_c0_reverse_53ba1 - rxn12284_c0 = 0
 cpd02536_c0: + rxn02782_c0_reverse_04e98 - rxn02782_c0
 + rxn02971_c0_reverse_bda0c - rxn02971_c0 = 0
 cpd00201_c0: + rxn00691_c0_reverse_a2583 - rxn00691_c0
 + rxn03004_c0_reverse_1e556 - rxn03004_c0 - rxn01211_c0_reverse_093f7
 + rxn01211_c0 + rxn03137_c0_reverse_91072 - rxn03137_c0 = 0
 CPD_DASH_218_Cytosol: - rxn05183_c0_reverse_3dbd5 + rxn05183_c0 = 0
 cpd00790_c0: - rxn01303_c0_reverse_5cb95 + rxn01303_c0
 + rxn00952_c0_reverse_3ef6d - rxn00952_c0 + rxn02302_c0_reverse_fbe6c
 - rxn02302_c0 = 0
 cpd00890_c0: + rxn02008_c0_reverse_3b950 - rxn02008_c0
 - rxn02286_c0_reverse_e7172 + rxn02286_c0 = 0
 C18_COLON_1_LPAREN_C9_RPAREN__Cytosol: - rxn12391_c0_reverse_09304
 + rxn12391_c0 + rxn12282_c0_reverse_ba0b6 - rxn12282_c0
 + 0.149 rxn12344_c0_reverse_75205 - 0.149 rxn12344_c0
 + 0.445 rxn12351_c0_reverse_0d460 - 0.445 rxn12351_c0
 - rxn12328_c0_reverse_4038d + rxn12328_c0
 + 0.09 rxn12304_c0_reverse_0c0d8 - 0.09 rxn12304_c0
 - rxn12329_c0_reverse_80a40 + rxn12329_c0 = 0
 cpd01006_e0: + rxn12410_c0_reverse_0398a - rxn12410_c0
 + EXF_DASH_CPDIM_DASH_6114_LBRACKET_Extraorganism_RBRACKET__reverse_d9924
 - EXF_DASH_CPDIM_DASH_6114_LBRACKET_Extraorganism_RBRACKET_ = 0
 cpd00193_c0: + rxn05256_c0_reverse_351cd - rxn05256_c0
 - rxn00379_c0_reverse_79b90 + rxn00379_c0 = 0
 cpd00017_c0: + 2 rxn12336_c0_reverse_cf461 - 2 rxn12336_c0
 + 0.08 rxn12496_c0_reverse_ff0a4 - 0.08 rxn12496_c0
 + rxn02312_c0_reverse_64ca4 - rxn02312_c0 + 2 rxn05005_c0_reverse_b93fa
 - 2 rxn05005_c0 - rxn00126_c0_reverse_c47fb + rxn00126_c0
 + rxn03397_c0_reverse_7d0f6 - rxn03397_c0 + rxn08130_c0_reverse_96dfb
 - rxn08130_c0 + rxn03395_c0_reverse_2cac4 - rxn03395_c0
 + rxn08353_c0_reverse_d5376 - rxn08353_c0 = 0
 cpd00859_c0: - rxn00776_c0_reverse_bfadd + rxn00776_c0 = 0
 cpd02698_c0: + rxn03087_c0_reverse_55192 - rxn03087_c0
 + rxn01973_c0_reverse_613ad - rxn01973_c0 = 0
 cpd00182_e0:
 + EXF_DASH_ADENOSINE_LBRACKET_Extraorganism_RBRACKET__reverse_e9643
 - EXF_DASH_ADENOSINE_LBRACKET_Extraorganism_RBRACKET_
 + rxn12381_c0_reverse_0ce91 - rxn12381_c0 = 0
 cpd00024_e0: + rxn08096_c0_reverse_5801f - rxn08096_c0
 + EXF_DASH_2_DASH_KETOGLUTARATE_LBRACKET_Extraorganism_RBRACKET__reverse_8ed67
 - EXF_DASH_2_DASH_KETOGLUTARATE_LBRACKET_Extraorganism_RBRACKET_ = 0
 cpd00071_c0: - rxn08469_c0_reverse_dae27 + rxn08469_c0
 + rxn00171_c0_reverse_94974 - rxn00171_c0 - rxn00543_c0_reverse_df82d
 + rxn00543_c0 - rxn09953_c0_reverse_f5bd1 + rxn09953_c0 = 0
 cpd00562_c0: - rxn12233_c0_reverse_9273a + rxn12233_c0
 + rxn02066_c0_reverse_5e5fe - rxn02066_c0 = 0
 cpd00069_c0: + rxn41935_c0_reverse_db2c5 - rxn41935_c0
 + rxn09310_c0_reverse_1afad - rxn09310_c0 - rxn12459_c0_reverse_9015e
 + rxn12459_c0 + rxn00527_c0_reverse_08f10 - rxn00527_c0
 - rxn00525_c0_reverse_dab5c + rxn00525_c0 = 0
 cpd00668_c0: + rxn15021_c0_reverse_7ca4e - rxn15021_c0
 + rxn02186_c0_reverse_23de4 - rxn02186_c0 = 0
 cpd05193_c0: - rxn12454_c0_reverse_41c6b + rxn12454_c0
 + rxn12262_c0_reverse_d52a0 - rxn12262_c0 = 0
 cpd16667_c0: - rxn12335_c0_reverse_6be8f + rxn12335_c0
 + rxn12305_c0_reverse_13a69 - rxn12305_c0 + rxn12340_c0_reverse_adc2f
 - rxn12340_c0 = 0
 cpd00797_e0: + rxn12405_c0_reverse_82dd5 - rxn12405_c0
 + EXF_DASH_CPD_DASH_335_LBRACKET_Extraorganism_RBRACKET__reverse_b3dc3
 - EXF_DASH_CPD_DASH_335_LBRACKET_Extraorganism_RBRACKET_ = 0
 cpd03130_c0: - rxn02679_c0_reverse_bdea5 + rxn02679_c0
 - rxn03247_c0_reverse_39359 + rxn03247_c0 = 0
 cpd00388_c0: + rxn01746_c0_reverse_f4eaf - rxn01746_c0 = 0
 cpd00345_c0: + rxn00693_c0_reverse_80a8c - rxn00693_c0
 + rxn04954_c0_reverse_87911 - rxn04954_c0 = 0
 cpd00022_c0: - rxn12257_c0_reverse_ff5eb + rxn12257_c0
 - rxn00154_c0_reverse_67f30 + rxn00154_c0 + rxn01303_c0_reverse_5cb95
 - rxn01303_c0 + rxn00423_c0_reverse_ebe14 - rxn00423_c0
 - rxn12274_c0_reverse_2c064 + rxn12274_c0 - rxn00175_c0_reverse_c6ef7
 + rxn00175_c0 - rxn00330_c0_reverse_9c12f + rxn00330_c0
 - rxn12252_c0_reverse_f2ba3 + rxn12252_c0 - rxn00171_c0_reverse_94974
 + rxn00171_c0 - rxn08767_c0_reverse_fed36 + rxn08767_c0
 + rxn00173_c0_reverse_21844 - rxn00173_c0 - rxn12248_c0_reverse_bd733
 + rxn12248_c0 - rxn00902_c0_reverse_e672c + rxn00902_c0
 - rxn03866_c0_reverse_9131f + rxn03866_c0 + rxn00533_c0_reverse_dfaec
 - rxn00533_c0 - rxn12291_c0_reverse_34bce + rxn12291_c0
 + rxn03248_c0_reverse_63873 - rxn03248_c0 + rxn02680_c0_reverse_2a6a3
 - rxn02680_c0 - rxn00875_c0_reverse_62069 + rxn00875_c0
 - rxn12269_c0_reverse_aa973 + rxn12269_c0 - rxn00256_c0_reverse_b1561
 + rxn00256_c0 + rxn03638_c0_reverse_63c0e - rxn03638_c0
 + rxn00676_c0_reverse_97437 - rxn00676_c0 + rxn00874_c0_reverse_bd4de
 - rxn00874_c0 + rxn03243_c0_reverse_6d279 - rxn03243_c0
 + rxn02804_c0_reverse_0454c - rxn02804_c0 - rxn09953_c0_reverse_f5bd1
 + rxn09953_c0 + rxn00598_c0_reverse_faf9e - rxn00598_c0
 - rxn04025_c0_reverse_491d8 + rxn04025_c0 - rxn12260_c0_reverse_b895f
 + rxn12260_c0 + rxn00192_c0_reverse_18e72 - rxn00192_c0
 + 2 rxn00178_c0_reverse_ffe8c - 2 rxn00178_c0
 + rxn06510_c0_reverse_b57fe - rxn06510_c0 - rxn12240_c0_reverse_4cd56
 + rxn12240_c0 - rxn12280_c0_reverse_423fc + rxn12280_c0
 - rxn00990_c0_reverse_b2e16 + rxn00990_c0 = 0
 cpd00011_e0: + rxn05467_c0_reverse_434a2 - rxn05467_c0
 + EXF_DASH_CARBON_DASH_DIOXIDE_LBRACKET_Extraorganism_RBRACKET__reverse_f7fa7
 - EXF_DASH_CARBON_DASH_DIOXIDE_LBRACKET_Extraorganism_RBRACKET_ = 0
 cpd00106_c0: - rxn00347_c0_reverse_4aa4c + rxn00347_c0
 - rxn00799_c0_reverse_559f2 + rxn00799_c0 - rxn03136_c0_reverse_374cf
 + rxn03136_c0 + rxn00993_c0_reverse_f3858 - rxn00993_c0
 - rxn12423_c0_reverse_3cbbf + rxn12423_c0 - rxn00800_c0_reverse_a2a4d
 + rxn00800_c0 - rxn09272_c0_reverse_40d41 + rxn09272_c0
 - rxn00802_c0_reverse_5f20a + rxn00802_c0 = 0
 cpd00133_c0: - rxn00941_c0_reverse_91e08 + rxn00941_c0
 + rxn00938_c0_reverse_e1115 - rxn00938_c0 = 0
 cpd00077_c0: - rxn00589_c0_reverse_9e00a + rxn00589_c0
 - rxn00595_c0_reverse_f4370 + rxn00595_c0 - rxn00584_c0_reverse_9c4c5
 + rxn00584_c0 + rxn00588_c0_reverse_90f98 - rxn00588_c0 = 0
 cpd02030_c0: + rxn02476_c0_reverse_8b374 - rxn02476_c0
 - rxn01739_c0_reverse_40beb + rxn01739_c0 = 0
 cpd16599_c0: + rxn12359_c0_reverse_289a6 - rxn12359_c0
 - rxn12349_c0_reverse_44e0f + rxn12349_c0 = 0
 cpd01716_c0: - rxn01742_c0_reverse_1275e + rxn01742_c0
 - rxn12374_c0_reverse_4e8a9 + rxn12374_c0 - rxn01740_c0_reverse_22752
 + rxn01740_c0 - x_780 + x_779 - rxn02213_c0_reverse_d7e4f + rxn02213_c0
 + rxn01188_c0_reverse_574aa - rxn01188_c0 = 0
 cpd00196_c0: - rxn00173_c0_reverse_21844 + rxn00173_c0
 - rxn00225_c0_reverse_bc53a + rxn00225_c0 = 0
 cpd15378_e0: + rxn12376_c0_reverse_6d0eb - rxn12376_c0
 + EXF_DASH_4_DASH_HYDROXY_DASH_BENZYL_DASH_ALCOHOL_LBRACKET_Extraorganism_RBRACKET__reverse_fa70d
 - EXF_DASH_4_DASH_HYDROXY_DASH_BENZYL_DASH_ALCOHOL_LBRACKET_Extraorganism_RBRACKET_
 = 0
 cpd04073_e0: + rxn12438_c0_reverse_e6539 - rxn12438_c0
 + EXF_DASH_VANILLATE_LBRACKET_Extraorganism_RBRACKET__reverse_5b971
 - EXF_DASH_VANILLATE_LBRACKET_Extraorganism_RBRACKET_ = 0
 cpd00525_c0: - rxn02008_c0_reverse_3b950 + rxn02008_c0
 + rxn02011_c0_reverse_5a61e - rxn02011_c0 = 0
 cpd02535_c0: - ACETOOHBUTREDUCTOISOM_DASH_RXN_reverse_797f7
 + ACETOOHBUTREDUCTOISOM_DASH_RXN + rxn03437_c0_reverse_86948
 - rxn03437_c0 = 0
 cpd00288_c0: - rxn01485_c0_reverse_92ff0 + rxn01485_c0
 - rxn00555_c0_reverse_e0f3c + rxn00555_c0 = 0
 CARNITINE_Cytosol: - rxn12364_c0_reverse_1c0bf + rxn12364_c0 = 0
 cpd08210_c0: - rxn01257_c0_reverse_f67a1 + rxn01257_c0
 + rxn03841_c0_reverse_be66b - rxn03841_c0 = 0
 cpd04103_c0: + rxn03617_c0_reverse_69746 - rxn03617_c0
 - rxn03880_c0_reverse_1abce + rxn03880_c0 = 0
 cpd03113_c0: + rxn03239_c0_reverse_e8516 - rxn03239_c0
 + rxn03240_c0_reverse_29d03 - rxn03240_c0 = 0
 cpd00210_c0: - rxn05172_c0_reverse_adef7 + rxn05172_c0
 + rxn03630_c0_reverse_def42 - rxn03630_c0 = 0
 cpd03116_c0: + rxn02911_c0_reverse_25737 - rxn02911_c0
 + rxn03242_c0_reverse_47203 - rxn03242_c0 = 0
 cpd00093_e0:
 + EXF_DASH_ANTHRANILATE_LBRACKET_Extraorganism_RBRACKET__reverse_925b6
 - EXF_DASH_ANTHRANILATE_LBRACKET_Extraorganism_RBRACKET_
 + rxn12383_c0_reverse_edddb - rxn12383_c0 = 0
 cpd04111_c0: + rxn03880_c0_reverse_1abce - rxn03880_c0
 - rxn12249_c0_reverse_80b67 + rxn12249_c0 = 0
 cpd02711_c0: - rxn01477_c0_reverse_67584 + rxn01477_c0
 + rxn03884_c0_reverse_82f7a - rxn03884_c0 = 0
 cpd11472_c0: + rxn05326_c0_reverse_7e919 - rxn05326_c0
 + rxn05350_c0_reverse_79ec3 - rxn05350_c0 = 0
 cpd16625_c0: - rxn12316_c0_reverse_1fded + rxn12316_c0
 + 0.2 rxn12338_c0_reverse_0086a - 0.2 rxn12338_c0
 + rxn12327_c0_reverse_860a9 - rxn12327_c0
 + 0.052 rxn12342_c0_reverse_be5cf - 0.052 rxn12342_c0
 + rxn12320_c0_reverse_d53d3 - rxn12320_c0 = 0
 cpd16620_c0: + rxn12272_c0_reverse_3870d - rxn12272_c0
 - rxn12275_c0_reverse_d61b1 + rxn12275_c0 = 0
 cpd11225_c0: + rxn03080_c0_reverse_17453 - rxn03080_c0
 - rxn05040_c0_reverse_58dbe + rxn05040_c0 = 0
 cpd00281_c0: - rxn05564_c0_reverse_24c42 + rxn05564_c0
 + rxn01204_c0_reverse_2bd15 - rxn01204_c0 - rxn01462_c0_reverse_51a4a
 + rxn01462_c0 = 0
 cpd00081_c0: + rxn09260_c0_reverse_dfd83 - rxn09260_c0
 - rxn08469_c0_reverse_dae27 + rxn08469_c0 - rxn05256_c0_reverse_351cd
 + rxn05256_c0 - rxn00623_c0_reverse_f1142 + rxn00623_c0
 - rxn03630_c0_reverse_def42 + rxn03630_c0 = 0
 cpd00020_e0: + rxn09218_c0_reverse_86a26 - rxn09218_c0
 + EXF_DASH_PYRUVATE_LBRACKET_Extraorganism_RBRACKET__reverse_435d6
 - EXF_DASH_PYRUVATE_LBRACKET_Extraorganism_RBRACKET_ = 0
 cpd16615_c0: + rxn12269_c0_reverse_aa973 - rxn12269_c0
 - rxn12268_c0_reverse_b532f + rxn12268_c0 = 0
 cpd00113_c0: + 5 rxn03891_c0_reverse_b37bf - 5 rxn03891_c0
 + 8 rxn04308_c0_reverse_b89c4 - 8 rxn04308_c0
 - rxn04113_c0_reverse_d915b + rxn04113_c0 + rxn01466_c0_reverse_6b2ec
 - rxn01466_c0 + rxn01213_c0_reverse_698a2 - rxn01213_c0 = 0
 cpd00106_e0: + rxn12423_c0_reverse_3cbbf - rxn12423_c0
 + EXF_DASH_FUM_LBRACKET_Extraorganism_RBRACKET__reverse_3dec6
 - EXF_DASH_FUM_LBRACKET_Extraorganism_RBRACKET_ = 0
 cpd02979_c0: - rxn02835_c0_reverse_7eeed + rxn02835_c0
 + rxn03175_c0_reverse_1e81a - rxn03175_c0 = 0
 cpd02724_c0: - rxn03087_c0_reverse_55192 + rxn03087_c0
 - rxn03031_c0_reverse_c2742 + rxn03031_c0 = 0
 cpd00802_c0: - rxn05560_c0_reverse_662b5 + rxn05560_c0
 + rxn01492_c0_reverse_94799 - rxn01492_c0 = 0
 cpd00637_e0:
 + EXF_DASH_CPD_DASH_218_LBRACKET_Extraorganism_RBRACKET__reverse_ce1eb
 - EXF_DASH_CPD_DASH_218_LBRACKET_Extraorganism_RBRACKET_
 + rxn05183_c0_reverse_3dbd5 - rxn05183_c0 = 0
 cpd00073_c0: - rxn05667_c0_reverse_388c6 + rxn05667_c0
 - rxn01462_c0_reverse_51a4a + rxn01462_c0 - rxn01746_c0_reverse_f4eaf
 + rxn01746_c0 + rxn00101_c0_reverse_6edc5 - rxn00101_c0 = 0
 cpd11649_c0: + 0.003 GROWTH_DASH_RXN_reverse_6bca6
 - 0.003 GROWTH_DASH_RXN - 3.005 rxn12305_c0_reverse_13a69
 + 3.005 rxn12305_c0 = 0
 cpd00168_c0: - rxn01094_c0_reverse_846cb + rxn01094_c0 = 0
 cpd16664_c0: - rxn12231_c0_reverse_fa7fd + rxn12231_c0
 + rxn12230_c0_reverse_8eed2 - rxn12230_c0 = 0
 cpd03124_c0: + rxn08446_c0_reverse_2e5b5 - rxn08446_c0
 + rxn03251_c0_reverse_f2f8c - rxn03251_c0 + rxn03248_c0_reverse_63873
 - rxn03248_c0 - rxn12288_c0_reverse_8e47c + rxn12288_c0 = 0
 cpd00881_c0: + rxn01427_c0_reverse_2284d - rxn01427_c0
 - rxn12397_c0_reverse_25fe7 + rxn12397_c0 = 0
 cpd16634_c0: - rxn12327_c0_reverse_860a9 + rxn12327_c0
 + rxn12326_c0_reverse_9d274 - rxn12326_c0 = 0
 cpd02227_c0: - rxn00143_c0_reverse_66afb + rxn00143_c0 = 0
 cpd08301_c0: + rxn10092_c0_reverse_5e6d7 - rxn10092_c0
 - rxn03910_c0_reverse_3633b + rxn03910_c0 = 0
 cpd01977_c0: - rxn01643_c0_reverse_7e2ea + rxn01643_c0
 - rxn00337_c0_reverse_8318a + rxn00337_c0 = 0
 cpd00216_c0: + rxn01257_c0_reverse_f67a1 - rxn01257_c0
 + rxn01258_c0_reverse_27471 - rxn01258_c0 - rxn01255_c0_reverse_c1b6a
 + rxn01255_c0 + rxn00727_c0_reverse_7475f - rxn00727_c0
 - rxn00966_c0_reverse_717ad + rxn00966_c0 + rxn01256_c0_reverse_fefb2
 - rxn01256_c0 = 0
 cpd00002_c0: + rxn02503_c0_reverse_a68fc - rxn02503_c0
 + rxn06433_c0_reverse_b302b - rxn06433_c0 + rxn00615_c0_reverse_413b8
 - rxn00615_c0 + rxn00770_c0_reverse_9f9ec - rxn00770_c0
 + rxn01571_c0_reverse_2e910 - rxn01571_c0 + rxn04753_c0_reverse_d3920
 - rxn04753_c0 + rxn12510_c0_reverse_e8662 - rxn12510_c0
 + rxn00117_c0_reverse_96cd0 - rxn00117_c0 + rxn05736_c0_reverse_9104b
 - rxn05736_c0 + rxn00438_c0_reverse_21406 - rxn00438_c0
 + rxn03108_c0_reverse_afd32 - rxn03108_c0 + rxn01427_c0_reverse_2284d
 - rxn01427_c0 - rxn06619_c0_reverse_9faa5 + rxn06619_c0
 + rxn00122_c0_reverse_784de - rxn00122_c0 + rxn02155_c0_reverse_fd760
 - rxn02155_c0 + rxn01917_c0_reverse_8a0d8 - rxn01917_c0
 + rxn12254_c0_reverse_ac3c1 - rxn12254_c0 + rxn12227_c0_reverse_f6816
 - rxn12227_c0 + rxn44292_c0_reverse_16d1f - rxn44292_c0
 + 40 GROWTH_DASH_RXN_reverse_6bca6 - 40 GROWTH_DASH_RXN
 + rxn01739_c0_reverse_40beb - rxn01739_c0 + rxn01492_c0_reverse_94799
 - rxn01492_c0 + rxn01300_c0_reverse_a4dd2 - rxn01300_c0
 + rxn02008_c0_reverse_3b950 - rxn02008_c0
 + 4.2 rxn12192_c0_reverse_10826 - 4.2 rxn12192_c0
 + rxn00175_c0_reverse_c6ef7 - rxn00175_c0 + rxn00917_c0_reverse_35aaa
 - rxn00917_c0 + rxn01219_c0_reverse_8a3a4 - rxn01219_c0
 + rxn05219_c0_reverse_e0806 - rxn05219_c0 + rxn00851_c0_reverse_59c29
 - rxn00851_c0 + rxn12282_c0_reverse_ba0b6 - rxn12282_c0
 + rxn05183_c0_reverse_3dbd5 - rxn05183_c0 + rxn48235_c0_reverse_cb3b8
 - rxn48235_c0 + rxn05152_c0_reverse_3e5ca - rxn05152_c0
 + rxn43736_c0_reverse_eccd9 - rxn43736_c0 + rxn12292_c0_reverse_021f3
 - rxn12292_c0 + rxn47831_c0_reverse_68e43 - rxn47831_c0
 + rxn44809_c0_reverse_8ad86 - rxn44809_c0 + rxn12271_c0_reverse_7660f
 - rxn12271_c0 + rxn01127_c0_reverse_b0168 - rxn01127_c0
 + rxn00392_c0_reverse_24c76 - rxn00392_c0 + rxn41935_c0_reverse_db2c5
 - rxn41935_c0 + rxn43380_c0_reverse_45ca6 - rxn43380_c0
 + rxn05114_c0_reverse_34e1e - rxn05114_c0 + rxn01791_c0_reverse_2cc23
 - rxn01791_c0 + rxn09444_c0_reverse_6bd76 - rxn09444_c0
 + rxn05153_c0_reverse_4452f - rxn05153_c0 + rxn03075_c0_reverse_5ebcd
 - rxn03075_c0 + rxn00337_c0_reverse_8318a - rxn00337_c0
 + rxn01512_c0_reverse_5d6a2 - rxn01512_c0 + rxn00225_c0_reverse_bc53a
 - rxn00225_c0 + rxn12276_c0_reverse_4b77d - rxn12276_c0
 + rxn09452_c0_reverse_d1ec4 - rxn09452_c0 + rxn00985_c0_reverse_5537f
 - rxn00985_c0 + rxn03147_c0_reverse_e6fe4 - rxn03147_c0
 + rxn48506_c0_reverse_07d35 - rxn48506_c0 + rxn05146_c0_reverse_e327d
 - rxn05146_c0 + rxn00412_c0_reverse_f611b - rxn00412_c0
 + rxn44277_c0_reverse_f6ffe - rxn44277_c0 + rxn00533_c0_reverse_dfaec
 - rxn00533_c0 + rxn00351_c0_reverse_cfbb1 - rxn00351_c0
 + rxn01100_c0_reverse_2daa7 - rxn01100_c0 + rxn01513_c0_reverse_0ef59
 - rxn01513_c0 + rxn00097_c0_reverse_84522 - rxn00097_c0
 + rxn00119_c0_reverse_29188 - rxn00119_c0 + rxn00105_c0_reverse_b71d3
 - rxn00105_c0 + rxn00239_c0_reverse_3a5f6 - rxn00239_c0
 + rxn47838_c0_reverse_a4405 - rxn47838_c0 + rxn12287_c0_reverse_c5869
 - rxn12287_c0 - rxn00789_c0_reverse_0ebce + rxn00789_c0
 + rxn06442_c0_reverse_c8767 - rxn06442_c0 + rxn41927_c0_reverse_ced6b
 - rxn41927_c0 + rxn09453_c0_reverse_59a33 - rxn09453_c0
 + rxn02937_c0_reverse_ee6a2 - rxn02937_c0 + rxn47732_c0_reverse_706b4
 - rxn47732_c0 + rxn01509_c0_reverse_c18be - rxn01509_c0
 + rxn40608_c0_reverse_36c97 - rxn40608_c0 + rxn09310_c0_reverse_1afad
 - rxn09310_c0 + TRANS_DASH_RXNIM_DASH_5895_reverse_e3ee2
 - TRANS_DASH_RXNIM_DASH_5895 + rxn46689_c0_reverse_10181 - rxn46689_c0
 + rxn00237_c0_reverse_4cdeb - rxn00237_c0 + rxn00772_c0_reverse_4e4e9
 - rxn00772_c0 + rxn06139_c0_reverse_dfa8c - rxn06139_c0
 + rxn00285_c0_reverse_5970f - rxn00285_c0 + rxn01102_c0_reverse_e553b
 - rxn01102_c0 + rxn09449_c0_reverse_0b61b - rxn09449_c0
 + rxn03164_c0_reverse_fd17f - rxn03164_c0 + rxn00839_c0_reverse_e1122
 - rxn00839_c0 + rxn03900_c0_reverse_81cc8 - rxn03900_c0
 + rxn02895_c0_reverse_ccce2 - rxn02895_c0 + rxn08981_c0_reverse_9dac7
 - rxn08981_c0 + rxn00674_c0_reverse_a763e - rxn00674_c0
 + rxn41196_c0_reverse_2ab9c - rxn41196_c0 + rxn12263_c0_reverse_4d8db
 - rxn12263_c0 + rxn41902_c0_reverse_1375a - rxn41902_c0
 + 2 rxn00689_c0_reverse_da455 - 2 rxn00689_c0
 + rxn02175_c0_reverse_f2029 - rxn02175_c0
 + TRANS_DASH_RXNIM_DASH_5771_reverse_5f296 - TRANS_DASH_RXNIM_DASH_5771
 - rxn08173_c0_reverse_2f53a + rxn08173_c0 + rxn02286_c0_reverse_e7172
 - rxn02286_c0 + 1.37 rxn12360_c0_reverse_1fdbb - 1.37 rxn12360_c0
 + 0.62 rxn12361_c0_reverse_35c09 - 0.62 rxn12361_c0
 + rxn03181_c0_reverse_bb21b - rxn03181_c0 + rxn02277_c0_reverse_c3e02
 - rxn02277_c0 + rxn05145_c0_reverse_604c0 - rxn05145_c0
 + rxn00126_c0_reverse_c47fb - rxn00126_c0 + rxn01603_c0_reverse_0e247
 - rxn01603_c0 + rxn12262_c0_reverse_d52a0 - rxn12262_c0
 + rxn05172_c0_reverse_adef7 - rxn05172_c0 + rxn00063_c0_reverse_f75e0
 - rxn00063_c0 + rxn01673_c0_reverse_f736f - rxn01673_c0
 + rxn46484_c0_reverse_80bc7 - rxn46484_c0 + rxn00179_c0_reverse_0d78e
 - rxn00179_c0 + rxn01678_c0_reverse_56988 - rxn01678_c0
 + rxn00077_c0_reverse_deb34 - rxn00077_c0 + rxn00364_c0_reverse_dd122
 - rxn00364_c0 + rxn00409_c0_reverse_250bc - rxn00409_c0
 + rxn05552_c0_reverse_e1fec - rxn05552_c0 + rxn00147_c0_reverse_87430
 - rxn00147_c0 + rxn00646_c0_reverse_c5e5a - rxn00646_c0
 + 2 rxn00414_c0_reverse_bab8c - 2 rxn00414_c0
 + rxn12288_c0_reverse_8e47c - rxn12288_c0 + rxn01275_c0_reverse_57a94
 - rxn01275_c0 + rxn02296_c0_reverse_115eb - rxn02296_c0
 + rxn06443_c0_reverse_a6b8a - rxn06443_c0 + rxn01434_c0_reverse_c28bc
 - rxn01434_c0 + rxn03084_c0_reverse_df786 - rxn03084_c0
 + rxn00379_c0_reverse_79b90 - rxn00379_c0 + rxn00190_c0_reverse_12593
 - rxn00190_c0 + rxn01182_c0_reverse_aefb6 - rxn01182_c0
 + rxn00187_c0_reverse_1628c - rxn00187_c0 + rxn03908_c0_reverse_3787d
 - rxn03908_c0 + rxn02011_c0_reverse_5a61e - rxn02011_c0
 + rxn00062_c0_reverse_6beb7 - rxn00062_c0 + rxn01353_c0_reverse_ca66e
 - rxn01353_c0 + rxn04783_c0_reverse_9d63f - rxn04783_c0
 + rxn00100_c0_reverse_97085 - rxn00100_c0 + rxn00947_c0_reverse_e410e
 - rxn00947_c0 = 0
 cpd00609_c0: - rxn08614_c0_reverse_bda47 + rxn08614_c0
 + rxn01989_c0_reverse_0d67b - rxn01989_c0 = 0
 cpd00597_c0: + rxn12287_c0_reverse_c5869 - rxn12287_c0
 - rxn12392_c0_reverse_691de + rxn12392_c0 = 0
 cpd02120_c0: - rxn02929_c0_reverse_c7e84 + rxn02929_c0
 - rxn01644_c0_reverse_e93fc + rxn01644_c0 = 0
 cpd00654_c0: - rxn12415_c0_reverse_816be + rxn12415_c0
 - rxn01218_c0_reverse_a9732 + rxn01218_c0 = 0
 cpd01270_c0: + rxn08469_c0_reverse_dae27 - rxn08469_c0
 + rxn03974_c0_reverse_bfeb1 - rxn03974_c0 + rxn12232_c0_reverse_a85f0
 - rxn12232_c0 = 0
 cpd00054_c0: + rxn12215_c0_reverse_68c5f - rxn12215_c0
 + rxn00423_c0_reverse_ebe14 - rxn00423_c0 + rxn06044_c0_reverse_b60f7
 - rxn06044_c0 + rxn43380_c0_reverse_45ca6 - rxn43380_c0
 + rxn01964_c0_reverse_9ec1a - rxn01964_c0 - rxn00420_c0_reverse_c9664
 + rxn00420_c0 - rxn00692_c0_reverse_2db83 + rxn00692_c0 = 0
 cpd11485_c0: - rxn05336_c0_reverse_6ca64 + rxn05336_c0
 - rxn05344_c0_reverse_57982 + rxn05344_c0 = 0
 cpd00073_e0: + rxn05667_c0_reverse_388c6 - rxn05667_c0
 + EXF_DASH_UREA_LBRACKET_Extraorganism_RBRACKET__reverse_ce395
 - EXF_DASH_UREA_LBRACKET_Extraorganism_RBRACKET_ = 0
 cpd00067_e0: + rxn12445_c0_reverse_79161 - rxn12445_c0
 + rxn12429_c0_reverse_17c11 - rxn12429_c0
 + TRANS_DASH_RXN_DASH_MAL_DASH_DAACS_reverse_bfc25
 - TRANS_DASH_RXN_DASH_MAL_DASH_DAACS + rxn08213_c0_reverse_3bf3a
 - rxn08213_c0 + rxn12387_c0_reverse_f4220 - rxn12387_c0
 + rxn12460_c0_reverse_fb4bd - rxn12460_c0 + rxn12440_c0_reverse_5f0f3
 - rxn12440_c0 + rxn12369_c0_reverse_942cb - rxn12369_c0
 + rxn12399_c0_reverse_b5c17 - rxn12399_c0 + 2 rxn09295_c0_reverse_354db
 - 2 rxn09295_c0 + rxn12366_c0_reverse_b6ba1 - rxn12366_c0
 + rxn12415_c0_reverse_816be - rxn12415_c0 + rxn12438_c0_reverse_e6539
 - rxn12438_c0 + rxn12382_c0_reverse_485cf - rxn12382_c0
 + rxn09256_c0_reverse_5e3c7 - rxn09256_c0 + rxn08155_c0_reverse_89609
 - rxn08155_c0 - 4 rxn08975_c0_reverse_12267 + 4 rxn08975_c0
 + rxn08856_c0_reverse_96103 - rxn08856_c0 + rxn12391_c0_reverse_09304
 - rxn12391_c0 + rxn05564_c0_reverse_24c42 - rxn05564_c0
 + rxn12422_c0_reverse_3885e - rxn12422_c0 + rxn08854_c0_reverse_00a2b
 - rxn08854_c0 + TRANS_DASH_RXN_DASH_L_DASH_ASPARTATE_reverse_1aaca
 - TRANS_DASH_RXN_DASH_L_DASH_ASPARTATE + rxn12370_c0_reverse_7557c
 - rxn12370_c0 + rxn12373_c0_reverse_1319d - rxn12373_c0
 + rxn12406_c0_reverse_53f28 - rxn12406_c0 + rxn12385_c0_reverse_a935c
 - rxn12385_c0 + TRANS_DASH_RXN_DASH_201_reverse_4fd6f
 - TRANS_DASH_RXN_DASH_201 + rxn12374_c0_reverse_4e8a9 - rxn12374_c0
 + rxn12413_c0_reverse_eb58f - rxn12413_c0 + rxn12425_c0_reverse_e5b69
 - rxn12425_c0 + rxn12400_c0_reverse_20d36 - rxn12400_c0
 + rxn12423_c0_reverse_3cbbf - rxn12423_c0 + rxn12451_c0_reverse_36d10
 - rxn12451_c0 + rxn12457_c0_reverse_2a98f - rxn12457_c0
 + rxn12444_c0_reverse_796b0 - rxn12444_c0 + rxn12434_c0_reverse_094a5
 - rxn12434_c0 + rxn12389_c0_reverse_cb452 - rxn12389_c0
 + rxn12454_c0_reverse_41c6b - rxn12454_c0 + rxn05579_c0_reverse_68d0c
 - rxn05579_c0 + TRANS_DASH_RXNIM_DASH_5803_reverse_80e3e
 - TRANS_DASH_RXNIM_DASH_5803
 + TRANS_DASH_RXN_DASH_MALONATE_reverse_c3dc2
 - TRANS_DASH_RXN_DASH_MALONATE + rxn12504_c0_reverse_8dd4d
 - rxn12504_c0 + rxn12403_c0_reverse_d30dd - rxn12403_c0
 + rxn12394_c0_reverse_e3df9 - rxn12394_c0 + rxn12427_c0_reverse_ea9d3
 - rxn12427_c0 + rxn12386_c0_reverse_95c5d - rxn12386_c0
 + rxn12428_c0_reverse_d9987 - rxn12428_c0 + rxn12456_c0_reverse_c6965
 - rxn12456_c0 + rxn12392_c0_reverse_691de - rxn12392_c0
 + rxn12459_c0_reverse_9015e - rxn12459_c0 + rxn12449_c0_reverse_f714a
 - rxn12449_c0 + rxn12371_c0_reverse_a7a4a - rxn12371_c0
 + rxn12446_c0_reverse_6e6b8 - rxn12446_c0 + rxn05470_c0_reverse_af18e
 - rxn05470_c0 + rxn05197_c0_reverse_1fd1b - rxn05197_c0
 + rxn05602_c0_reverse_6e5a5 - rxn05602_c0 + rxn12431_c0_reverse_f3d22
 - rxn12431_c0 + 4 rxn08173_c0_reverse_2f53a - 4 rxn08173_c0
 + rxn12455_c0_reverse_9f5d1 - rxn12455_c0 + rxn12433_c0_reverse_b9993
 - rxn12433_c0 + rxn12450_c0_reverse_bb1f6 - rxn12450_c0
 - 4 CYT_DASH_UBIQUINOL_DASH_OXID_DASH_D_DASH_RXN_reverse_59fbf
 + 4 CYT_DASH_UBIQUINOL_DASH_OXID_DASH_D_DASH_RXN
 - rxn12448_c0_reverse_c3be1 + rxn12448_c0 + rxn05582_c0_reverse_52f81
 - rxn05582_c0 + rxn12419_c0_reverse_f7691 - rxn12419_c0
 + rxn12388_c0_reverse_3e38d - rxn12388_c0 + rxn12390_c0_reverse_103df
 - rxn12390_c0 + rxn12416_c0_reverse_f9e54 - rxn12416_c0
 + rxn12437_c0_reverse_59aa2 - rxn12437_c0 + rxn12439_c0_reverse_98086
 - rxn12439_c0 + rxn12458_c0_reverse_16d51 - rxn12458_c0
 + rxn12417_c0_reverse_de9ac - rxn12417_c0 + rxn12414_c0_reverse_510aa
 - rxn12414_c0 + rxn12372_c0_reverse_14f01 - rxn12372_c0
 + rxn12435_c0_reverse_f0c8d - rxn12435_c0 + rxn12395_c0_reverse_638bc
 - rxn12395_c0 - rxn09048_c0_reverse_34b99 + rxn09048_c0
 + rxn12397_c0_reverse_25fe7 - rxn12397_c0 + rxn12418_c0_reverse_c8418
 - rxn12418_c0 + rxn12381_c0_reverse_0ce91 - rxn12381_c0
 + rxn12364_c0_reverse_1c0bf - rxn12364_c0 + rxn12393_c0_reverse_1e0a7
 - rxn12393_c0 - 8 rxn12494_c0_reverse_b1375 + 8 rxn12494_c0 = 0
 cpd12194_c0: + 0.02 rxn12192_c0_reverse_10826 - 0.02 rxn12192_c0
 - rxn41935_c0_reverse_db2c5 + rxn41935_c0 = 0
 L_DASH_PHOSPHATIDATE_PL_Cytosol: + rxn06043_c0_reverse_57cb0
 - rxn06043_c0 - x_1270 + x_1269 = 0
 cpd00117_c0: + 2 rxn00851_c0_reverse_59c29 - 2 rxn00851_c0
 - rxn08302_c0_reverse_051d3 + rxn08302_c0 - rxn00283_c0_reverse_7dba3
 + rxn00283_c0 + rxn08291_c0_reverse_9e151 - rxn08291_c0 = 0
 cpd00800_c0: + rxn02312_c0_reverse_64ca4 - rxn02312_c0
 - rxn02297_c0_reverse_96fea + rxn02297_c0 = 0
 cpd00516_c0: + rxn00313_c0_reverse_f15f4 - rxn00313_c0
 + rxn02011_c0_reverse_5a61e - rxn02011_c0 - rxn01974_c0_reverse_bdb12
 + rxn01974_c0 = 0
 cpd02961_c0: + rxn03168_c0_reverse_d9d27 - rxn03168_c0
 + rxn02504_c0_reverse_fb5ec - rxn02504_c0 = 0
 cpd00132_c0: - rxn05220_c0_reverse_cb064 + rxn05220_c0
 + rxn00342_c0_reverse_235bc - rxn00342_c0 = 0
 cpd02993_c0: + rxn03182_c0_reverse_1fd52 - rxn03182_c0
 - rxn03181_c0_reverse_bb21b + rxn03181_c0 = 0
 cpd16617_c0: + rxn12270_c0_reverse_64c08 - rxn12270_c0
 - rxn12274_c0_reverse_2c064 + rxn12274_c0 - rxn12271_c0_reverse_7660f
 + rxn12271_c0 + rxn12315_c0_reverse_4ad8f - rxn12315_c0 = 0
 cpd00550_e0:
 + EXF_DASH_D_DASH_SERINE_LBRACKET_Extraorganism_RBRACKET__reverse_fd563
 - EXF_DASH_D_DASH_SERINE_LBRACKET_Extraorganism_RBRACKET_
 + rxn08373_c0_reverse_c25dd - rxn08373_c0 = 0
 cpd00127_c0: - rxn00925_c0_reverse_da2c8 + rxn00925_c0 = 0
 cpd00041_e0: + TRANS_DASH_RXN_DASH_L_DASH_ASPARTATE_reverse_1aaca
 - TRANS_DASH_RXN_DASH_L_DASH_ASPARTATE + rxn05152_c0_reverse_3e5ca
 - rxn05152_c0
 + EXF_DASH_L_DASH_ASPARTATE_LBRACKET_Extraorganism_RBRACKET__reverse_ed12b
 - EXF_DASH_L_DASH_ASPARTATE_LBRACKET_Extraorganism_RBRACKET_
 + rxn12439_c0_reverse_98086 - rxn12439_c0 = 0
 cpd00630_c0: - rxn02144_c0_reverse_2881f + rxn02144_c0
 + rxn02143_c0_reverse_9704c - rxn02143_c0 = 0
 cpd03525_c0: + rxn00291_c0_reverse_dab3b - rxn00291_c0
 - rxn03422_c0_reverse_84b00 + rxn03422_c0 = 0
 cpd00038_c0: + rxn00301_c0_reverse_bcf0e - rxn00301_c0
 + rxn00300_c0_reverse_7e153 - rxn00300_c0 + rxn00299_c0_reverse_d20b3
 - rxn00299_c0 - rxn00237_c0_reverse_4cdeb + rxn00237_c0
 + rxn00838_c0_reverse_57617 - rxn00838_c0
 + 0.222 rxn12361_c0_reverse_35c09 - 0.222 rxn12361_c0
 + rxn00305_c0_reverse_b1f24 - rxn00305_c0 = 0
 cpd00114_c0: + rxn00832_c0_reverse_d8a09 - rxn00832_c0
 + rxn00831_c0_reverse_384c0 - rxn00831_c0 + rxn00836_c0_reverse_48e4c
 - rxn00836_c0 + rxn00838_c0_reverse_57617 - rxn00838_c0
 + rxn00834_c0_reverse_0227f - rxn00834_c0 = 0
 cpd01777_c0: + rxn02835_c0_reverse_7eeed - rxn02835_c0
 - rxn02834_c0_reverse_537f6 + rxn02834_c0 = 0
 cpd11473_c0: - rxn05326_c0_reverse_7e919 + rxn05326_c0
 - rxn05330_c0_reverse_452b8 + rxn05330_c0 = 0
 cpd00599_e0:
 + EXF_DASH_CPD_DASH_110_LBRACKET_Extraorganism_RBRACKET__reverse_8060e
 - EXF_DASH_CPD_DASH_110_LBRACKET_Extraorganism_RBRACKET_
 + rxn12401_c0_reverse_39a95 - rxn12401_c0 = 0
 cpd00067_c0: - rxn12445_c0_reverse_79161 + rxn12445_c0
 - rxn12429_c0_reverse_17c11 + rxn12429_c0
 - TRANS_DASH_RXN_DASH_MAL_DASH_DAACS_reverse_bfc25
 + TRANS_DASH_RXN_DASH_MAL_DASH_DAACS - rxn08213_c0_reverse_3bf3a
 + rxn08213_c0 + NADH_DASH_DEHYDROGENASE_DASH_RXN_reverse_eb679
 - NADH_DASH_DEHYDROGENASE_DASH_RXN - rxn12387_c0_reverse_f4220
 + rxn12387_c0 - rxn12460_c0_reverse_fb4bd + rxn12460_c0
 - rxn12440_c0_reverse_5f0f3 + rxn12440_c0 - rxn12369_c0_reverse_942cb
 + rxn12369_c0 - rxn12399_c0_reverse_b5c17 + rxn12399_c0
 - 2 rxn09295_c0_reverse_354db + 2 rxn09295_c0
 - rxn12366_c0_reverse_b6ba1 + rxn12366_c0 - rxn12415_c0_reverse_816be
 + rxn12415_c0 - rxn12438_c0_reverse_e6539 + rxn12438_c0
 - rxn12382_c0_reverse_485cf + rxn12382_c0 - rxn09256_c0_reverse_5e3c7
 + rxn09256_c0 - rxn08155_c0_reverse_89609 + rxn08155_c0
 + 5 rxn08975_c0_reverse_12267 - 5 rxn08975_c0
 - rxn08856_c0_reverse_96103 + rxn08856_c0 - rxn12391_c0_reverse_09304
 + rxn12391_c0 - rxn05564_c0_reverse_24c42 + rxn05564_c0
 - rxn12422_c0_reverse_3885e + rxn12422_c0 - rxn08854_c0_reverse_00a2b
 + rxn08854_c0 - TRANS_DASH_RXN_DASH_L_DASH_ASPARTATE_reverse_1aaca
 + TRANS_DASH_RXN_DASH_L_DASH_ASPARTATE - rxn03422_c0_reverse_84b00
 + rxn03422_c0 - rxn12370_c0_reverse_7557c + rxn12370_c0
 - rxn12373_c0_reverse_1319d + rxn12373_c0 - rxn12406_c0_reverse_53f28
 + rxn12406_c0 - rxn12385_c0_reverse_a935c + rxn12385_c0
 - TRANS_DASH_RXN_DASH_201_reverse_4fd6f + TRANS_DASH_RXN_DASH_201
 - rxn12374_c0_reverse_4e8a9 + rxn12374_c0 - rxn00086_c0_reverse_3a823
 + rxn00086_c0 - rxn12413_c0_reverse_eb58f + rxn12413_c0
 - rxn12425_c0_reverse_e5b69 + rxn12425_c0 - rxn12400_c0_reverse_20d36
 + rxn12400_c0 - rxn12423_c0_reverse_3cbbf + rxn12423_c0
 - rxn12451_c0_reverse_36d10 + rxn12451_c0 - rxn12457_c0_reverse_2a98f
 + rxn12457_c0 - rxn12444_c0_reverse_796b0 + rxn12444_c0
 - rxn12434_c0_reverse_094a5 + rxn12434_c0 + rxn00533_c0_reverse_dfaec
 - rxn00533_c0 - rxn12389_c0_reverse_cb452 + rxn12389_c0
 + rxn00102_c0_reverse_7b86e - rxn00102_c0 - rxn12454_c0_reverse_41c6b
 + rxn12454_c0 + UNBAL_DASH_PROTON_reverse_77ce3 - UNBAL_DASH_PROTON
 - rxn05579_c0_reverse_68d0c + rxn05579_c0
 - TRANS_DASH_RXNIM_DASH_5803_reverse_80e3e + TRANS_DASH_RXNIM_DASH_5803
 - TRANS_DASH_RXN_DASH_MALONATE_reverse_c3dc2
 + TRANS_DASH_RXN_DASH_MALONATE - rxn12504_c0_reverse_8dd4d
 + rxn12504_c0 - rxn12403_c0_reverse_d30dd + rxn12403_c0
 - rxn12394_c0_reverse_e3df9 + rxn12394_c0 - rxn12427_c0_reverse_ea9d3
 + rxn12427_c0 - rxn12386_c0_reverse_95c5d + rxn12386_c0
 - rxn12428_c0_reverse_d9987 + rxn12428_c0 - rxn12456_c0_reverse_c6965
 + rxn12456_c0 - rxn12392_c0_reverse_691de + rxn12392_c0
 + rxn10092_c0_reverse_5e6d7 - rxn10092_c0 - rxn12459_c0_reverse_9015e
 + rxn12459_c0 - rxn12449_c0_reverse_f714a + rxn12449_c0
 - rxn12371_c0_reverse_a7a4a + rxn12371_c0 - rxn12446_c0_reverse_6e6b8
 + rxn12446_c0 - rxn04996_c0_reverse_f7c7e + rxn04996_c0
 - rxn05470_c0_reverse_af18e + rxn05470_c0 - rxn05197_c0_reverse_1fd1b
 + rxn05197_c0 - rxn05602_c0_reverse_6e5a5 + rxn05602_c0
 + 2 rxn02056_c0_reverse_cdee7 - 2 rxn02056_c0
 - rxn12431_c0_reverse_f3d22 + rxn12431_c0 - 3 rxn08173_c0_reverse_2f53a
 + 3 rxn08173_c0 + 2 rxn00206_c0_reverse_a3678 - 2 rxn00206_c0
 - rxn12455_c0_reverse_9f5d1 + rxn12455_c0 - rxn12433_c0_reverse_b9993
 + rxn12433_c0 - rxn12450_c0_reverse_bb1f6 + rxn12450_c0
 + 4 CYT_DASH_UBIQUINOL_DASH_OXID_DASH_D_DASH_RXN_reverse_59fbf
 - 4 CYT_DASH_UBIQUINOL_DASH_OXID_DASH_D_DASH_RXN
 + rxn12448_c0_reverse_c3be1 - rxn12448_c0 - rxn05582_c0_reverse_52f81
 + rxn05582_c0 - rxn12419_c0_reverse_f7691 + rxn12419_c0
 - rxn12388_c0_reverse_3e38d + rxn12388_c0 - rxn12390_c0_reverse_103df
 + rxn12390_c0 - rxn12416_c0_reverse_f9e54 + rxn12416_c0
 - rxn12437_c0_reverse_59aa2 + rxn12437_c0 - 2 rxn00224_c0_reverse_d0f78
 + 2 rxn00224_c0 - 5 rxn00568_c0_reverse_a1c6b + 5 rxn00568_c0
 - rxn12439_c0_reverse_98086 + rxn12439_c0 - rxn12458_c0_reverse_16d51
 + rxn12458_c0 - rxn12417_c0_reverse_de9ac + rxn12417_c0
 - rxn09953_c0_reverse_f5bd1 + rxn09953_c0 - rxn12414_c0_reverse_510aa
 + rxn12414_c0 - rxn12372_c0_reverse_14f01 + rxn12372_c0
 - rxn12435_c0_reverse_f0c8d + rxn12435_c0 - rxn12395_c0_reverse_638bc
 + rxn12395_c0 + rxn09048_c0_reverse_34b99 - rxn09048_c0
 + rxn00414_c0_reverse_bab8c - rxn00414_c0 - rxn12397_c0_reverse_25fe7
 + rxn12397_c0 - rxn12418_c0_reverse_c8418 + rxn12418_c0
 - rxn12381_c0_reverse_0ce91 + rxn12381_c0 - rxn12364_c0_reverse_1c0bf
 + rxn12364_c0 - rxn12393_c0_reverse_1e0a7 + rxn12393_c0
 + 8 rxn12494_c0_reverse_b1375 - 8 rxn12494_c0
 - rxn00062_c0_reverse_6beb7 + rxn00062_c0 = 0
 cpd00227_c0: + rxn01303_c0_reverse_5cb95 - rxn01303_c0
 + rxn01300_c0_reverse_a4dd2 - rxn01300_c0 + rxn01301_c0_reverse_0fe7f
 - rxn01301_c0 + rxn12372_c0_reverse_14f01 - rxn12372_c0 = 0
 cpd00142_c0: + rxn00993_c0_reverse_f3858 - rxn00993_c0
 - rxn08030_c0_reverse_9d635 + rxn08030_c0 - rxn00992_c0_reverse_347e6
 + rxn00992_c0 - rxn00990_c0_reverse_b2e16 + rxn00990_c0 = 0
 cpd00954_c0: + rxn02503_c0_reverse_a68fc - rxn02503_c0
 - rxn02504_c0_reverse_fb5ec + rxn02504_c0 = 0
 cpd01733_c0: + rxn03970_c0_reverse_3d5bd - rxn03970_c0
 - rxn12399_c0_reverse_b5c17 + rxn12399_c0 = 0
 cpd04122_c0: + rxn05735_c0_reverse_f8529 - rxn05735_c0
 - rxn03630_c0_reverse_def42 + rxn03630_c0 = 0
 cpd00078_c0: - rxn08094_c0_reverse_a5cfe + rxn08094_c0
 + rxn00601_c0_reverse_07197 - rxn00601_c0 - rxn00285_c0_reverse_5970f
 + rxn00285_c0 + rxn02143_c0_reverse_9704c - rxn02143_c0
 + rxn03031_c0_reverse_c2742 - rxn03031_c0 + rxn00598_c0_reverse_faf9e
 - rxn00598_c0 = 0
 cpd02656_c0: - rxn03080_c0_reverse_17453 + rxn03080_c0
 + 2 rxn00048_c0_reverse_70384 - 2 rxn00048_c0 = 0
 cpd00159_c0: + rxn08792_c0_reverse_a4e55 - rxn08792_c0
 - rxn08795_c0_reverse_7c068 + rxn08795_c0 - rxn05602_c0_reverse_6e5a5
 + rxn05602_c0 = 0
 VITAMIN_K__LBRACE_2_RBRACE__Cytosol: - rxn08130_c0_reverse_96dfb
 + rxn08130_c0 = 0
 cpd01775_c0: + rxn00789_c0_reverse_0ebce - rxn00789_c0
 + rxn02834_c0_reverse_537f6 - rxn02834_c0 = 0
 cpd00159_e0:
 + EXF_DASH_L_DASH_LACTATE_LBRACKET_Extraorganism_RBRACKET__reverse_6be68
 - EXF_DASH_L_DASH_LACTATE_LBRACKET_Extraorganism_RBRACKET_
 + rxn08795_c0_reverse_7c068 - rxn08795_c0 + rxn05602_c0_reverse_6e5a5
 - rxn05602_c0 = 0
 cpd00604_c0: - rxn12400_c0_reverse_20d36 + rxn12400_c0
 + rxn01182_c0_reverse_aefb6 - rxn01182_c0 = 0
 cpd11478_c0: + rxn05339_c0_reverse_7cfa4 - rxn05339_c0
 + rxn05329_c0_reverse_d98be - rxn05329_c0 = 0
 cpd16665_c0: + rxn12231_c0_reverse_fa7fd - rxn12231_c0
 - rxn12229_c0_reverse_b8ec2 + rxn12229_c0 = 0
 cpd00408_c0: + rxn01791_c0_reverse_2cc23 - rxn01791_c0
 + rxn01790_c0_reverse_d68bb - rxn01790_c0 = 0
 cpd02693_c0: + rxn03062_c0_reverse_a5bc7 - rxn03062_c0
 - rxn02789_c0_reverse_b334b + rxn02789_c0 = 0
 cpd02835_c0: + rxn06723_c0_reverse_18b5b - rxn06723_c0
 + rxn03130_c0_reverse_c33e1 - rxn03130_c0 + rxn03159_c0_reverse_808d3
 - rxn03159_c0 = 0
 cpd11491_c0: - rxn05345_c0_reverse_d76ed + rxn05345_c0
 - rxn05342_c0_reverse_cfe2f + rxn05342_c0 = 0
 cpd12164_c0: + 0.04 rxn12192_c0_reverse_10826 - 0.04 rxn12192_c0
 - rxn41196_c0_reverse_2ab9c + rxn41196_c0 = 0
 cpd00183_c0: + rxn00433_c0_reverse_fd8dd - rxn00433_c0 = 0
 cpd00956_c0: - rxn02508_c0_reverse_e1392 + rxn02508_c0
 + rxn02507_c0_reverse_414b4 - rxn02507_c0 = 0
 cpd12313_c0: + rxn06619_c0_reverse_9faa5 - rxn06619_c0
 + 0.04 rxn12192_c0_reverse_10826 - 0.04 rxn12192_c0 = 0
 cpd16596_c0:
 + GLYCEROL_DASH_3_DASH_P_DASH_ACYLTRANSFER_DASH_PL_DASH_RXN_reverse_c99a7
 - GLYCEROL_DASH_3_DASH_P_DASH_ACYLTRANSFER_DASH_PL_DASH_RXN
 - rxn12338_c0_reverse_0086a + rxn12338_c0 + x_1270 - x_1269 = 0
 cpd16660_c0: + rxn12373_c0_reverse_1319d - rxn12373_c0 = 0
 cpd11477_c0: - rxn05328_c0_reverse_20c79 + rxn05328_c0
 - rxn05332_c0_reverse_138b1 + rxn05332_c0 = 0
 cpd00084_c0: - rxn00649_c0_reverse_37aab + rxn00649_c0
 + rxn43736_c0_reverse_eccd9 - rxn43736_c0 + rxn09310_c0_reverse_1afad
 - rxn09310_c0 + rxn09177_c0_reverse_ef483 - rxn09177_c0
 + rxn00646_c0_reverse_c5e5a - rxn00646_c0 + rxn17731_c0_reverse_a1749
 - rxn17731_c0 + rxn02302_c0_reverse_fbe6c - rxn02302_c0 = 0
 cpd00281_e0: + rxn05564_c0_reverse_24c42 - rxn05564_c0
 + EXF_DASH_4_DASH_AMINO_DASH_BUTYRATE_LBRACKET_Extraorganism_RBRACKET__reverse_72ca1
 - EXF_DASH_4_DASH_AMINO_DASH_BUTYRATE_LBRACKET_Extraorganism_RBRACKET_
 = 0
 cpd00930_c0: - rxn02473_c0_reverse_9b509 + rxn02473_c0
 - rxn02320_c0_reverse_9f689 + rxn02320_c0 = 0
 cpd00347_c0: + rxn01211_c0_reverse_093f7 - rxn01211_c0
 - rxn00907_c0_reverse_cad1b + rxn00907_c0 = 0
 cpd11193_c0: + rxn12237_c0_reverse_4ea7c - rxn12237_c0
 - rxn12408_c0_reverse_ba3b4 + rxn12408_c0 = 0
 cpd16609_c0: + rxn12271_c0_reverse_7660f - rxn12271_c0
 - rxn12315_c0_reverse_4ad8f + rxn12315_c0 = 0
 cpd00722_c0: - rxn00423_c0_reverse_ebe14 + rxn00423_c0
 + rxn00649_c0_reverse_37aab - rxn00649_c0 = 0
 cpd00001_e0: + rxn01107_c0_reverse_62e5d - rxn01107_c0
 + rxn05319_c0_reverse_b72db - rxn05319_c0 + rxn02149_c0_reverse_b28f8
 - rxn02149_c0
 + EXF_DASH_WATER_LBRACKET_Extraorganism_RBRACKET__reverse_eff50
 - EXF_DASH_WATER_LBRACKET_Extraorganism_RBRACKET_ = 0
 cpd00130_c0: - TRANS_DASH_RXN_DASH_MAL_DASH_DAACS_reverse_bfc25
 + TRANS_DASH_RXN_DASH_MAL_DASH_DAACS + rxn00330_c0_reverse_9c12f
 - rxn00330_c0 + rxn00799_c0_reverse_559f2 - rxn00799_c0
 + rxn08900_c0_reverse_a503b - rxn08900_c0 + rxn00248_c0_reverse_0818d
 - rxn00248_c0 - rxn12446_c0_reverse_6e6b8 + rxn12446_c0
 + rxn00161_c0_reverse_23eac - rxn00161_c0 + rxn00159_c0_reverse_35110
 - rxn00159_c0 = 0
 cpd15560_c0: + NADH_DASH_DEHYDROGENASE_DASH_RXN_reverse_eb679
 - NADH_DASH_DEHYDROGENASE_DASH_RXN - rxn12498_c0_reverse_04855
 + rxn12498_c0 + rxn08975_c0_reverse_12267 - rxn08975_c0
 + 0.08 rxn12496_c0_reverse_ff0a4 - 0.08 rxn12496_c0
 + rxn10126_c0_reverse_95955 - rxn10126_c0 + rxn08900_c0_reverse_a503b
 - rxn08900_c0 + rxn12500_c0_reverse_2c526 - rxn12500_c0
 + rxn08792_c0_reverse_a4e55 - rxn08792_c0 + rxn09167_c0_reverse_90de2
 - rxn09167_c0
 - 2 CYT_DASH_UBIQUINOL_DASH_OXID_DASH_D_DASH_RXN_reverse_59fbf
 + 2 CYT_DASH_UBIQUINOL_DASH_OXID_DASH_D_DASH_RXN
 + rxn09272_c0_reverse_40d41 - rxn09272_c0 - 2 rxn12494_c0_reverse_b1375
 + 2 rxn12494_c0 - rxn08353_c0_reverse_d5376 + rxn08353_c0 = 0
 cpd16645_c0: - rxn12292_c0_reverse_021f3 + rxn12292_c0
 + rxn12289_c0_reverse_0df61 - rxn12289_c0 = 0
 cpd00413_c0: + rxn01802_c0_reverse_9e3ef - rxn01802_c0
 - rxn03866_c0_reverse_9131f + rxn03866_c0 + rxn12264_c0_reverse_3cc11
 - rxn12264_c0 - rxn12263_c0_reverse_4d8db + rxn12263_c0 = 0
 cpd00046_c0: - rxn03182_c0_reverse_1fd52 + rxn03182_c0
 - rxn06044_c0_reverse_b60f7 + rxn06044_c0 - rxn00367_c0_reverse_8ab6d
 + rxn00367_c0 - rxn03439_c0_reverse_dd2d2 + rxn03439_c0
 - rxn09177_c0_reverse_ef483 + rxn09177_c0 + rxn00364_c0_reverse_dd122
 - rxn00364_c0 - rxn03910_c0_reverse_3633b + rxn03910_c0
 - rxn20547_c0_reverse_82a23 + rxn20547_c0 = 0
 cpd03091_c0: - 2 rxn12336_c0_reverse_cf461 + 2 rxn12336_c0 = 0
 cpd00508_c0: - rxn01575_c0_reverse_06d3d + rxn01575_c0
 - rxn03437_c0_reverse_86948 + rxn03437_c0 = 0
 cpd02375_c0: + rxn00800_c0_reverse_a2a4d - rxn00800_c0
 - rxn00838_c0_reverse_57617 + rxn00838_c0 = 0
 NITRITE_Extraorganism:
 + EXF_DASH_NITRITE_LBRACKET_Extraorganism_RBRACKET__reverse_6e6f1
 - EXF_DASH_NITRITE_LBRACKET_Extraorganism_RBRACKET_
 - rxn08999_c0_reverse_80be1 + rxn08999_c0 = 0
 cpd16616_c0: + rxn12319_c0_reverse_37c95 - rxn12319_c0
 - rxn12311_c0_reverse_8c971 + rxn12311_c0 = 0
 cpd00129_e0:
 + EXF_DASH_PRO_LBRACKET_Extraorganism_RBRACKET__reverse_9d153
 - EXF_DASH_PRO_LBRACKET_Extraorganism_RBRACKET_
 + rxn05221_c0_reverse_7f2fc - rxn05221_c0 + rxn12451_c0_reverse_36d10
 - rxn12451_c0 + rxn09193_c0_reverse_0061d - rxn09193_c0 = 0
 cpd00350_c0: + rxn05120_c0_reverse_6f116 - rxn05120_c0
 + rxn03891_c0_reverse_b37bf - rxn03891_c0 + rxn04308_c0_reverse_b89c4
 - rxn04308_c0 - rxn01466_c0_reverse_6b2ec + rxn01466_c0 = 0
 cpd02730_c0: + rxn02404_c0_reverse_cb0b0 - rxn02404_c0
 + rxn02331_c0_reverse_1f746 - rxn02331_c0 = 0
 cpd11475_c0: - rxn05327_c0_reverse_9892a + rxn05327_c0
 - rxn05333_c0_reverse_d5880 + rxn05333_c0 = 0
 cpd16650_c0: - rxn12258_c0_reverse_90736 + rxn12258_c0
 + rxn12259_c0_reverse_66abf - rxn12259_c0 = 0
 cpd00726_c0: - rxn07465_c0_reverse_a8c94 + rxn07465_c0 = 0
 cpd00223_c0: - rxn01286_c0_reverse_9270e + rxn01286_c0
 + rxn01102_c0_reverse_e553b - rxn01102_c0 + rxn01011_c0_reverse_0f4e2
 - rxn01011_c0 = 0
 cpd00136_e0: + rxn12433_c0_reverse_b9993 - rxn12433_c0
 + EXF_DASH_4_DASH_HYDROXYBENZOATE_LBRACKET_Extraorganism_RBRACKET__reverse_ca713
 - EXF_DASH_4_DASH_HYDROXYBENZOATE_LBRACKET_Extraorganism_RBRACKET_ = 0
 cpd00762_e0: + rxn12407_c0_reverse_208dc - rxn12407_c0
 + EXF_DASH_CPD_DASH_592_LBRACKET_Extraorganism_RBRACKET__reverse_ab0e8
 - EXF_DASH_CPD_DASH_592_LBRACKET_Extraorganism_RBRACKET_ = 0
 cpd00024_c0: + rxn08094_c0_reverse_a5cfe - rxn08094_c0
 + rxn05036_c0_reverse_a2fdd - rxn05036_c0 + rxn00191_c0_reverse_beaba
 - rxn00191_c0 - rxn04786_c0_reverse_63c31 + rxn04786_c0
 - rxn00184_c0_reverse_bf801 + rxn00184_c0 + rxn02320_c0_reverse_9f689
 - rxn02320_c0 + rxn01204_c0_reverse_2bd15 - rxn01204_c0
 + rxn03087_c0_reverse_55192 - rxn03087_c0 - rxn08096_c0_reverse_5801f
 + rxn08096_c0 + rxn01575_c0_reverse_06d3d - rxn01575_c0
 + rxn00260_c0_reverse_b9076 - rxn00260_c0 - rxn00196_c0_reverse_3cc98
 + rxn00196_c0 + rxn00806_c0_reverse_4d986 - rxn00806_c0
 + rxn00527_c0_reverse_08f10 - rxn00527_c0 + rxn00493_c0_reverse_d7e65
 - rxn00493_c0 + rxn00903_c0_reverse_8c60f - rxn00903_c0
 + rxn01637_c0_reverse_b3a28 - rxn01637_c0 + rxn03445_c0_reverse_92435
 - rxn03445_c0 + rxn03630_c0_reverse_def42 - rxn03630_c0
 - rxn00085_c0_reverse_ae294 + rxn00085_c0 + rxn02914_c0_reverse_5766b
 - rxn02914_c0 + rxn02944_c0_reverse_14577 - rxn02944_c0
 - rxn00199_c0_reverse_0d3eb + rxn00199_c0 = 0
 cpd03445_c0: + rxn03395_c0_reverse_2cac4 - rxn03395_c0
 - 2 rxn03394_c0_reverse_6c71b + 2 rxn03394_c0 = 0
 cpd00817_c0: + rxn01117_c0_reverse_ed4b1 - rxn01117_c0
 - rxn02331_c0_reverse_1f746 + rxn02331_c0 = 0
 cpd00184_e0:
 + EXF_DASH_THYMIDINE_LBRACKET_Extraorganism_RBRACKET__reverse_f9628
 - EXF_DASH_THYMIDINE_LBRACKET_Extraorganism_RBRACKET_
 + rxn12457_c0_reverse_2a98f - rxn12457_c0 = 0
 cpd16595_c0: - rxn12331_c0_reverse_d8803 + rxn12331_c0
 + 2 rxn12332_c0_reverse_3da81 - 2 rxn12332_c0 = 0
 cpd00482_c0: + rxn00459_c0_reverse_7f5be - rxn00459_c0
 + rxn01106_c0_reverse_bc17a - rxn01106_c0 = 0
 cpd27383_c0: - 0.07 rxn12192_c0_reverse_10826 + 0.07 rxn12192_c0
 + rxn44809_c0_reverse_8ad86 - rxn44809_c0 = 0
 cpd02182_c0: + rxn01274_c0_reverse_3c82a - rxn01274_c0
 + rxn01834_c0_reverse_598cc - rxn01834_c0 = 0
 cpd11471_c0: - rxn05334_c0_reverse_1a75d + rxn05334_c0
 - rxn05325_c0_reverse_f2da0 + rxn05325_c0 = 0
 cpd08449_c0: + rxn04070_c0_reverse_7fa04 - rxn04070_c0
 - rxn12223_c0_reverse_3a1d9 + rxn12223_c0 = 0
 cpd03114_c0: - rxn03239_c0_reverse_e8516 + rxn03239_c0
 - rxn02804_c0_reverse_0454c + rxn02804_c0 = 0
 cpd01217_c0: - rxn01961_c0_reverse_03538 + rxn01961_c0
 + rxn01545_c0_reverse_d2776 - rxn01545_c0 = 0
 cpd00978_c0: + rxn06075_c0_reverse_62c9c - rxn06075_c0
 + rxn01678_c0_reverse_56988 - rxn01678_c0 = 0
 cpd00051_e0: - rxn08155_c0_reverse_89609 + rxn08155_c0
 + rxn12437_c0_reverse_59aa2 - rxn12437_c0
 + EXF_DASH_ARG_LBRACKET_Extraorganism_RBRACKET__reverse_afd17
 - EXF_DASH_ARG_LBRACKET_Extraorganism_RBRACKET_ = 0
 cpd00092_e0:
 + EXF_DASH_URACIL_LBRACKET_Extraorganism_RBRACKET__reverse_019d4
 - EXF_DASH_URACIL_LBRACKET_Extraorganism_RBRACKET_
 + rxn05197_c0_reverse_1fd1b - rxn05197_c0 = 0
 cpd15561_c0: - NADH_DASH_DEHYDROGENASE_DASH_RXN_reverse_eb679
 + NADH_DASH_DEHYDROGENASE_DASH_RXN + rxn12498_c0_reverse_04855
 - rxn12498_c0 - rxn08975_c0_reverse_12267 + rxn08975_c0
 - rxn10126_c0_reverse_95955 + rxn10126_c0 - rxn08900_c0_reverse_a503b
 + rxn08900_c0 - rxn12500_c0_reverse_2c526 + rxn12500_c0
 - rxn08792_c0_reverse_a4e55 + rxn08792_c0 - rxn09167_c0_reverse_90de2
 + rxn09167_c0
 + 2 CYT_DASH_UBIQUINOL_DASH_OXID_DASH_D_DASH_RXN_reverse_59fbf
 - 2 CYT_DASH_UBIQUINOL_DASH_OXID_DASH_D_DASH_RXN
 - rxn09272_c0_reverse_40d41 + rxn09272_c0 + 2 rxn12494_c0_reverse_b1375
 - 2 rxn12494_c0 = 0
 cpd00794_c0: - rxn02004_c0_reverse_e631c + rxn02004_c0 = 0
 cpd11677_c0: + TRIACYLGLYCEROL_W_DASH_RXN_reverse_c3da0
 - TRIACYLGLYCEROL_W_DASH_RXN - rxn12345_c0_reverse_1e310 + rxn12345_c0
 + rxn12348_c0_reverse_6d0fb - rxn12348_c0 = 0
 cpd02097_c0: - rxn02373_c0_reverse_5567a + rxn02373_c0
 - rxn00179_c0_reverse_0d78e + rxn00179_c0 = 0
 cpd03426_c0: - rxn02774_c0_reverse_0d621 + rxn02774_c0
 - rxn02056_c0_reverse_cdee7 + rxn02056_c0 = 0
 cpd02642_c0: + rxn02508_c0_reverse_e1392 - rxn02508_c0
 + rxn00791_c0_reverse_c2912 - rxn00791_c0 = 0
 cpd16622_c0: - rxn12272_c0_reverse_3870d + rxn12272_c0
 + rxn12273_c0_reverse_94bf0 - rxn12273_c0 = 0
 cpd08287_c0: - rxn03907_c0_reverse_daf14 + rxn03907_c0
 + rxn03908_c0_reverse_3787d - rxn03908_c0 = 0
 cpd03607_c0: + rxn12223_c0_reverse_3a1d9 - rxn12223_c0
 + rxn03445_c0_reverse_92435 - rxn03445_c0 = 0
 cpd00424_c0: + rxn00950_c0_reverse_f76b0 - rxn00950_c0
 - rxn02302_c0_reverse_fbe6c + rxn02302_c0 = 0
 cpd02210_c0: + rxn01964_c0_reverse_9ec1a - rxn01964_c0
 - rxn02507_c0_reverse_414b4 + rxn02507_c0 = 0
 cpd00660_c0: + rxn12286_c0_reverse_d1c2e - rxn12286_c0
 - rxn12287_c0_reverse_c5869 + rxn12287_c0 = 0
 cpd08288_c0: + rxn03910_c0_reverse_3633b - rxn03910_c0
 - rxn03908_c0_reverse_3787d + rxn03908_c0 = 0
 cpd03002_c0: + rxn03181_c0_reverse_bb21b - rxn03181_c0
 - rxn03159_c0_reverse_808d3 + rxn03159_c0 = 0
 cpd00731_c0: - rxn00851_c0_reverse_59c29 + rxn00851_c0
 + rxn03164_c0_reverse_fd17f - rxn03164_c0 = 0
 cpd00355_e0: + rxn08995_c0_reverse_602b3 - rxn08995_c0
 + EXF_DASH_NICOTINAMIDE_NUCLEOTIDE_LBRACKET_Extraorganism_RBRACKET__reverse_46675
 - EXF_DASH_NICOTINAMIDE_NUCLEOTIDE_LBRACKET_Extraorganism_RBRACKET_ = 0
 GLC_Periplasm: 0 rxn12357_c0 = 0
 cpd01080_c0: - rxn12323_c0_reverse_5d45e + rxn12323_c0
 + 0.06 rxn12344_c0_reverse_75205 - 0.06 rxn12344_c0
 - rxn08444_c0_reverse_f6c59 + rxn08444_c0 + rxn09449_c0_reverse_0b61b
 - rxn09449_c0 - rxn12390_c0_reverse_103df + rxn12390_c0 = 0
 C18_COLON_1_LPAREN_C9_RPAREN__Extraorganism:
 + EXF_DASH_C18_COLON_1_LPAREN_C9_RPAREN__LBRACKET_Extraorganism_RBRACKET__reverse_ddbfc
 - EXF_DASH_C18_COLON_1_LPAREN_C9_RPAREN__LBRACKET_Extraorganism_RBRACKET_
 + rxn12391_c0_reverse_09304 - rxn12391_c0 = 0
 cpd00277_e0:
 + EXF_DASH_DEOXYGUANOSINE_LBRACKET_Extraorganism_RBRACKET__reverse_42dcd
 - EXF_DASH_DEOXYGUANOSINE_LBRACKET_Extraorganism_RBRACKET_
 + rxn12416_c0_reverse_f9e54 - rxn12416_c0 = 0
 cpd00641_c0: + rxn02159_c0_reverse_80539 - rxn02159_c0
 - rxn02160_c0_reverse_d62d3 + rxn02160_c0 = 0
 cpd00206_c0: + rxn01219_c0_reverse_8a3a4 - rxn01219_c0
 - rxn01222_c0_reverse_e7a5c + rxn01222_c0 + rxn01218_c0_reverse_a9732
 - rxn01218_c0 = 0
 C12_COLON_1_LPAREN_C3_RPAREN__DASH_COA_Cytosol:
 - rxn12269_c0_reverse_aa973 + rxn12269_c0 + rxn02869_c0_reverse_701c7
 - rxn02869_c0 = 0
 cpd01695_c0: - rxn05736_c0_reverse_9104b + rxn05736_c0
 + rxn08441_c0_reverse_2611c - rxn08441_c0 + rxn02803_c0_reverse_c1dd1
 - rxn02803_c0 + 0.022 rxn12343_c0_reverse_049b6 - 0.022 rxn12343_c0
 + rxn02804_c0_reverse_0454c - rxn02804_c0 = 0
 cpd01260_c0: + rxn08440_c0_reverse_26b9d - rxn08440_c0
 - rxn09452_c0_reverse_d1ec4 + rxn09452_c0 + rxn02720_c0_reverse_8aa9d
 - rxn02720_c0 + rxn06510_c0_reverse_b57fe - rxn06510_c0 = 0
 cpd00597_e0:
 + EXF_DASH_C5_COLON_0_LBRACKET_Extraorganism_RBRACKET__reverse_d54c5
 - EXF_DASH_C5_COLON_0_LBRACKET_Extraorganism_RBRACKET_
 + rxn12392_c0_reverse_691de - rxn12392_c0 = 0
 cpd00998_e0: + rxn12402_c0_reverse_4f35d - rxn12402_c0
 + EXF_DASH_CPD_DASH_148_LBRACKET_Extraorganism_RBRACKET__reverse_2a07d
 - EXF_DASH_CPD_DASH_148_LBRACKET_Extraorganism_RBRACKET_ = 0
 cpd00308_e0: + TRANS_DASH_RXN_DASH_MALONATE_reverse_c3dc2
 - TRANS_DASH_RXN_DASH_MALONATE
 + EXF_DASH_MALONATE_LBRACKET_Extraorganism_RBRACKET__reverse_7d2cb
 - EXF_DASH_MALONATE_LBRACKET_Extraorganism_RBRACKET_
 + rxn12432_c0_reverse_40ed2 - rxn12432_c0 = 0
 cpd12132_c0: + 0.04 rxn12192_c0_reverse_10826 - 0.04 rxn12192_c0
 - rxn43380_c0_reverse_45ca6 + rxn43380_c0 = 0
 cpd16629_c0: + rxn12323_c0_reverse_5d45e - rxn12323_c0
 + 0.1 rxn12331_c0_reverse_d8803 - 0.1 rxn12331_c0
 + 0.1 rxn12338_c0_reverse_0086a - 0.1 rxn12338_c0
 - rxn12322_c0_reverse_abd61 + rxn12322_c0
 + 0.06 rxn12342_c0_reverse_be5cf - 0.06 rxn12342_c0 = 0
 cpd02636_c0: + rxn03075_c0_reverse_5ebcd - rxn03075_c0 = 0
 cpd00683_c0: - rxn02201_c0_reverse_551c1 + rxn02201_c0
 + rxn01603_c0_reverse_0e247 - rxn01603_c0 = 0
 cpd00762_c0: - rxn12407_c0_reverse_208dc + rxn12407_c0
 + rxn01462_c0_reverse_51a4a - rxn01462_c0 = 0
 cpd03521_c0: - rxn03168_c0_reverse_d9d27 + rxn03168_c0
 - rxn03173_c0_reverse_e93ab + rxn03173_c0 = 0
 cpd03129_c0: - rxn03245_c0_reverse_157ba + rxn03245_c0
 - rxn03253_c0_reverse_89a23 + rxn03253_c0 = 0
 cpd03121_c0: - rxn03246_c0_reverse_93213 + rxn03246_c0
 - rxn03248_c0_reverse_63873 + rxn03248_c0 = 0
 cpd00161_c0: + rxn44292_c0_reverse_16d1f - rxn44292_c0
 + rxn12456_c0_reverse_c6965 - rxn12456_c0 - rxn01069_c0_reverse_6c902
 + rxn01069_c0 + rxn00737_c0_reverse_8a60e - rxn00737_c0 = 0
 cpd03847_e0: + rxn12387_c0_reverse_f4220 - rxn12387_c0
 + EXF_DASH_C14_COLON_0_LBRACKET_Extraorganism_RBRACKET__reverse_063f2
 - EXF_DASH_C14_COLON_0_LBRACKET_Extraorganism_RBRACKET_ = 0
 cpd16604_c0: - rxn12253_c0_reverse_f6986 + rxn12253_c0
 + rxn12250_c0_reverse_cbb57 - rxn12250_c0 = 0
 cpd00079_c0: - rxn20583_c0_reverse_0e0c6 + rxn20583_c0
 + rxn00558_c0_reverse_c4809 - rxn00558_c0 + rxn00605_c0_reverse_b010b
 - rxn00605_c0 = 0
 cpd03449_c0: - rxn20472_c0_reverse_e22eb + rxn20472_c0
 + rxn08353_c0_reverse_d5376 - rxn08353_c0 = 0
 cpd01599_c0: + rxn12255_c0_reverse_1f2ed - rxn12255_c0
 - rxn12264_c0_reverse_3cc11 + rxn12264_c0 = 0
 cpd00087_c0: + 0.08 rxn12496_c0_reverse_ff0a4 - 0.08 rxn12496_c0
 - rxn00912_c0_reverse_23517 + rxn00912_c0 - rxn00693_c0_reverse_80a8c
 + rxn00693_c0 - rxn00691_c0_reverse_a2583 + rxn00691_c0
 + rxn00686_c0_reverse_06367 - rxn00686_c0 - rxn03004_c0_reverse_1e556
 + rxn03004_c0 + rxn00689_c0_reverse_da455 - rxn00689_c0
 - rxn00692_c0_reverse_2db83 + rxn00692_c0 + rxn12217_c0_reverse_aabb4
 - rxn12217_c0 - rxn03137_c0_reverse_91072 + rxn03137_c0 = 0
 cpd12060_c0: + 0.04 rxn12192_c0_reverse_10826 - 0.04 rxn12192_c0
 - rxn41902_c0_reverse_1375a + rxn41902_c0 = 0
 cpd16611_c0: - rxn12270_c0_reverse_64c08 + rxn12270_c0
 + rxn12267_c0_reverse_250c9 - rxn12267_c0 = 0
 cpd16618_c0: + 0.052 rxn12344_c0_reverse_75205 - 0.052 rxn12344_c0
 + rxn12276_c0_reverse_4b77d - rxn12276_c0
 + 0.315 rxn12351_c0_reverse_0d460 - 0.315 rxn12351_c0
 - rxn12389_c0_reverse_cb452 + rxn12389_c0
 + 0.574 rxn12304_c0_reverse_0c0d8 - 0.574 rxn12304_c0
 - rxn12321_c0_reverse_19324 + rxn12321_c0 - rxn12320_c0_reverse_d53d3
 + rxn12320_c0 = 0
 cpd00652_e0: + rxn08581_c0_reverse_5e8b6 - rxn08581_c0
 + EXF_DASH_D_DASH_GALACTARATE_LBRACKET_Extraorganism_RBRACKET__reverse_a0a66
 - EXF_DASH_D_DASH_GALACTARATE_LBRACKET_Extraorganism_RBRACKET_ = 0
 cpd00066_c0: + rxn47831_c0_reverse_68e43 - rxn47831_c0
 - rxn12449_c0_reverse_f714a + rxn12449_c0 + rxn00493_c0_reverse_d7e65
 - rxn00493_c0 = 0
 cpd11770_c0: + 0.13 rxn12192_c0_reverse_10826 - 0.13 rxn12192_c0
 - rxn48506_c0_reverse_07d35 + rxn48506_c0 = 0
 cpd02921_c0: + rxn03136_c0_reverse_374cf - rxn03136_c0
 - rxn03147_c0_reverse_e6fe4 + rxn03147_c0 = 0
 cpd00040_c0: - rxn00328_c0_reverse_2373d + rxn00328_c0
 - rxn00330_c0_reverse_9c12f + rxn00330_c0 - rxn00336_c0_reverse_aa1a4
 + rxn00336_c0 - rxn00327_c0_reverse_ce61d + rxn00327_c0 = 0
 cpd01741_c0: - rxn08440_c0_reverse_26b9d + rxn08440_c0
 + rxn09452_c0_reverse_d1ec4 - rxn09452_c0 - rxn12386_c0_reverse_95c5d
 + rxn12386_c0 - rxn06556_c0_reverse_11a34 + rxn06556_c0 = 0
 cpd00540_e0: + rxn05579_c0_reverse_68d0c - rxn05579_c0
 + rxn08639_c0_reverse_7f130 - rxn08639_c0
 + EXF_DASH_BETAINE_LBRACKET_Extraorganism_RBRACKET__reverse_46709
 - EXF_DASH_BETAINE_LBRACKET_Extraorganism_RBRACKET_ = 0
 cpd00225_c0: - rxn01293_c0_reverse_91d3a + rxn01293_c0
 + rxn01032_c0_reverse_bad7b - rxn01032_c0 = 0
 cpd04073_c0: - rxn03969_c0_reverse_a1720 + rxn03969_c0
 - rxn12438_c0_reverse_e6539 + rxn12438_c0 + rxn03586_c0_reverse_bec9c
 - rxn03586_c0 = 0
 cpd01059_c0: - rxn03970_c0_reverse_3d5bd + rxn03970_c0
 + rxn01571_c0_reverse_2e910 - rxn01571_c0 = 0
 cpd12255_c0: + 0.02 rxn12192_c0_reverse_10826 - 0.02 rxn12192_c0
 - rxn43736_c0_reverse_eccd9 + rxn43736_c0 = 0
 cpd01733_e0: + rxn12399_c0_reverse_b5c17 - rxn12399_c0
 + EXF_DASH_CONIFERYL_DASH_ALDEHYDE_LBRACKET_Extraorganism_RBRACKET__reverse_5a6ce
 - EXF_DASH_CONIFERYL_DASH_ALDEHYDE_LBRACKET_Extraorganism_RBRACKET_ = 0
 cpd00342_c0: + rxn01636_c0_reverse_84dff - rxn01636_c0
 + rxn01637_c0_reverse_b3a28 - rxn01637_c0 + rxn00469_c0_reverse_1b6e4
 - rxn00469_c0 = 0
 cpd16624_c0: + rxn12274_c0_reverse_2c064 - rxn12274_c0
 - rxn12273_c0_reverse_94bf0 + rxn12273_c0 = 0
 cpd14935_c0: - rxn12277_c0_reverse_25bb7 + rxn12277_c0
 + rxn08767_c0_reverse_fed36 - rxn08767_c0 = 0
 cpd00363_e0:
 + EXF_DASH_ETOH_LBRACKET_Extraorganism_RBRACKET__reverse_3ee52
 - EXF_DASH_ETOH_LBRACKET_Extraorganism_RBRACKET_
 + rxn08428_c0_reverse_7ba2b - rxn08428_c0 = 0
 cpd03846_e0:
 + EXF_DASH_C8_COLON_0_LBRACKET_Extraorganism_RBRACKET__reverse_7bb09
 - EXF_DASH_C8_COLON_0_LBRACKET_Extraorganism_RBRACKET_
 + rxn12395_c0_reverse_638bc - rxn12395_c0 = 0
 cpd00097_e0: + rxn01364_c0_reverse_c94af - rxn01364_c0
 + rxn01742_c0_reverse_1275e - rxn01742_c0 - rxn12199_c0_reverse_3571b
 + rxn12199_c0 - rxn12363_c0_reverse_7cafd + rxn12363_c0
 + rxn12200_c0_reverse_02e82 - rxn12200_c0 = 0
 cpd16636_c0: + 0.1 rxn12331_c0_reverse_d8803 - 0.1 rxn12331_c0
 + 0.6 rxn12338_c0_reverse_0086a - 0.6 rxn12338_c0
 + rxn12328_c0_reverse_4038d - rxn12328_c0 - rxn12324_c0_reverse_29839
 + rxn12324_c0 + 0.149 rxn12342_c0_reverse_be5cf - 0.149 rxn12342_c0 = 0
 cpd00282_c0: + rxn01465_c0_reverse_5c55f - rxn01465_c0
 + rxn01360_c0_reverse_4b9bd - rxn01360_c0 = 0
 cpd00069_e0: + rxn12459_c0_reverse_9015e - rxn12459_c0
 + EXF_DASH_TYR_LBRACKET_Extraorganism_RBRACKET__reverse_42ae6
 - EXF_DASH_TYR_LBRACKET_Extraorganism_RBRACKET_ = 0
 cpd16640_c0: - rxn12286_c0_reverse_d1c2e + rxn12286_c0
 + rxn12283_c0_reverse_fdf92 - rxn12283_c0 = 0
 cpd00111_c0: - rxn00086_c0_reverse_3a823 + rxn00086_c0
 - rxn00205_c0_reverse_490b1 + rxn00205_c0 = 0
 cpd02930_c0: - rxn03130_c0_reverse_c33e1 + rxn03130_c0
 + rxn03159_c0_reverse_808d3 - rxn03159_c0 = 0
 cpd00089_c0: + rxn20583_c0_reverse_0e0c6 - rxn20583_c0
 + rxn00213_c0_reverse_0365f - rxn00213_c0 + rxn01675_c0_reverse_42827
 - rxn01675_c0 = 0
 cpd11483_c0: + rxn05334_c0_reverse_1a75d - rxn05334_c0
 + rxn05341_c0_reverse_c963e - rxn05341_c0 = 0
 cpd00060_c0: - rxn03052_c0_reverse_04585 + rxn03052_c0
 - 2 rxn12336_c0_reverse_cf461 + 2 rxn12336_c0
 - rxn05219_c0_reverse_e0806 + rxn05219_c0 - rxn00693_c0_reverse_80a8c
 + rxn00693_c0 + rxn00126_c0_reverse_c47fb - rxn00126_c0
 + rxn06443_c0_reverse_a6b8a - rxn06443_c0 = 0
 cpd11455_c0: - rxn06044_c0_reverse_b60f7 + rxn06044_c0
 + rxn06090_c0_reverse_5e199 - rxn06090_c0 = 0
 FRUCTOSE_DASH_6P_Cytosol: + rxn00555_c0_reverse_e0f3c - rxn00555_c0
 - rxn00559_c0_reverse_7422a + rxn00559_c0 - rxn01333_c0_reverse_15140
 + rxn01333_c0 - rxn00558_c0_reverse_c4809 + rxn00558_c0
 - rxn00549_c0_reverse_1ff19 + rxn00549_c0 + rxn00785_c0_reverse_f6e32
 - rxn00785_c0 = 0
 cpd00791_c0: + rxn12219_c0_reverse_43385 - rxn12219_c0
 - rxn02303_c0_reverse_3b873 + rxn02303_c0 = 0
 cpd16606_c0: - rxn12251_c0_reverse_0649a + rxn12251_c0
 + rxn12252_c0_reverse_f2ba3 - rxn12252_c0 = 0
 cpd00186_c0: - rxn00193_c0_reverse_274c9 + rxn00193_c0
 + rxn02008_c0_reverse_3b950 - rxn02008_c0 = 0
 cpd02140_c0: + rxn20643_c0_reverse_33af7 - rxn20643_c0
 + rxn05114_c0_reverse_34e1e - rxn05114_c0 - rxn02937_c0_reverse_ee6a2
 + rxn02937_c0 = 0
 cpd00171_c0: + rxn01116_c0_reverse_042bd - rxn01116_c0
 - rxn00777_c0_reverse_4ab24 + rxn00777_c0 - rxn01117_c0_reverse_ed4b1
 + rxn01117_c0 + rxn05040_c0_reverse_58dbe - rxn05040_c0 = 0
 cpd00197_e0: + rxn12246_c0_reverse_8216b - rxn12246_c0 = 0
 cpd00009_c0: + rxn00670_c0_reverse_b91ec - rxn00670_c0
 - rxn02476_c0_reverse_8b374 + rxn02476_c0 - rxn01019_c0_reverse_56c77
 + rxn01019_c0 - rxn00132_c0_reverse_3a5d8 + rxn00132_c0
 + rxn01643_c0_reverse_7e2ea - rxn01643_c0 + rxn03168_c0_reverse_d9d27
 - rxn03168_c0 - rxn01145_c0_reverse_a92f4 + rxn01145_c0
 + rxn06619_c0_reverse_9faa5 - rxn06619_c0 + rxn00251_c0_reverse_b1866
 - rxn00251_c0 - rxn02212_c0_reverse_54d5b + rxn02212_c0
 - rxn02004_c0_reverse_e631c + rxn02004_c0
 - 40 GROWTH_DASH_RXN_reverse_6bca6 + 40 GROWTH_DASH_RXN
 - rxn02008_c0_reverse_3b950 + rxn02008_c0
 - 4.2 rxn12192_c0_reverse_10826 + 4.2 rxn12192_c0
 - rxn05219_c0_reverse_e0806 + rxn05219_c0 - rxn00851_c0_reverse_59c29
 + rxn00851_c0 - rxn05183_c0_reverse_3dbd5 + rxn05183_c0
 - rxn03080_c0_reverse_17453 + rxn03080_c0 - rxn05152_c0_reverse_3e5ca
 + rxn05152_c0 - rxn00913_c0_reverse_e72c9 + rxn00913_c0
 - rxn00980_c0_reverse_3afe7 + rxn00980_c0 - rxn05114_c0_reverse_34e1e
 + rxn05114_c0 + rxn00781_c0_reverse_762ea - rxn00781_c0
 - rxn05153_c0_reverse_4452f + rxn05153_c0 - rxn02404_c0_reverse_cb0b0
 + rxn02404_c0 + rxn00173_c0_reverse_21844 - rxn00173_c0
 - rxn20526_c0_reverse_6eb70 + rxn20526_c0 - rxn01961_c0_reverse_03538
 + rxn01961_c0 - rxn06138_c0_reverse_460eb + rxn06138_c0
 - rxn01521_c0_reverse_faebb + rxn01521_c0 - rxn03147_c0_reverse_e6fe4
 + rxn03147_c0 - rxn05146_c0_reverse_e327d + rxn05146_c0
 - rxn00412_c0_reverse_f611b + rxn00412_c0 - rxn01332_c0_reverse_f9f28
 + rxn01332_c0 - rxn00533_c0_reverse_dfaec + rxn00533_c0
 - rxn00351_c0_reverse_cfbb1 + rxn00351_c0 + rxn02465_c0_reverse_3e5e6
 - rxn02465_c0 - rxn03901_c0_reverse_d694e + rxn03901_c0
 + rxn02373_c0_reverse_5567a - rxn02373_c0 - rxn02937_c0_reverse_ee6a2
 + rxn02937_c0 - rxn00831_c0_reverse_384c0 + rxn00831_c0
 - TRANS_DASH_RXNIM_DASH_5895_reverse_e3ee2 + TRANS_DASH_RXNIM_DASH_5895
 - rxn00838_c0_reverse_57617 + rxn00838_c0 - rxn00285_c0_reverse_5970f
 + rxn00285_c0 - rxn01018_c0_reverse_7ccc7 + rxn01018_c0
 - rxn00420_c0_reverse_c9664 + rxn00420_c0 - rxn03164_c0_reverse_fd17f
 + rxn03164_c0 - rxn02895_c0_reverse_ccce2 + rxn02895_c0
 - rxn08981_c0_reverse_9dac7 + rxn08981_c0 - rxn01255_c0_reverse_c1b6a
 + rxn01255_c0 - 2 rxn00001_c0_reverse_24410 + 2 rxn00001_c0
 - 2 rxn00689_c0_reverse_da455 + 2 rxn00689_c0
 - TRANS_DASH_RXNIM_DASH_5771_reverse_5f296 + TRANS_DASH_RXNIM_DASH_5771
 + rxn08173_c0_reverse_2f53a - rxn08173_c0 - rxn02286_c0_reverse_e7172
 + rxn02286_c0 - 1.37 rxn12360_c0_reverse_1fdbb + 1.37 rxn12360_c0
 - rxn12450_c0_reverse_bb1f6 + rxn12450_c0 - rxn00549_c0_reverse_1ff19
 + rxn00549_c0 - rxn04070_c0_reverse_7fa04 + rxn04070_c0
 - rxn05039_c0_reverse_b851c + rxn05039_c0
 - 0.4 rxn12361_c0_reverse_35c09 + 0.4 rxn12361_c0
 - rxn02160_c0_reverse_d62d3 + rxn02160_c0 - rxn02277_c0_reverse_c3e02
 + rxn02277_c0 - rxn00640_c0_reverse_e6d45 + rxn00640_c0
 - rxn01218_c0_reverse_a9732 + rxn01218_c0 - 2 rxn05145_c0_reverse_604c0
 + 2 rxn05145_c0 - rxn00126_c0_reverse_c47fb + rxn00126_c0
 - rxn01603_c0_reverse_0e247 + rxn01603_c0 - rxn05172_c0_reverse_adef7
 + rxn05172_c0 - rxn00708_c0_reverse_fe989 + rxn00708_c0
 - rxn00461_c0_reverse_73c3f + rxn00461_c0 + rxn02988_c0_reverse_371a0
 - rxn02988_c0 - rxn05552_c0_reverse_e1fec + rxn05552_c0
 - rxn00147_c0_reverse_87430 + rxn00147_c0 + rxn02331_c0_reverse_1f746
 - rxn02331_c0 - rxn00646_c0_reverse_c5e5a + rxn00646_c0
 - rxn01069_c0_reverse_6c902 + rxn01069_c0 - rxn01445_c0_reverse_e75dd
 + rxn01445_c0 - rxn00414_c0_reverse_bab8c + rxn00414_c0
 - rxn01507_c0_reverse_17467 + rxn01507_c0 - rxn03084_c0_reverse_df786
 + rxn03084_c0 - rxn00187_c0_reverse_1628c + rxn00187_c0
 - rxn02011_c0_reverse_5a61e + rxn02011_c0 - rxn00062_c0_reverse_6beb7
 + rxn00062_c0 - rxn04783_c0_reverse_9d63f + rxn04783_c0 = 0
 cpd03444_c0: - rxn03393_c0_reverse_f213f + rxn03393_c0
 + 2 rxn03394_c0_reverse_6c71b - 2 rxn03394_c0 = 0
 cpd00356_c0: + rxn01672_c0_reverse_36a9f - rxn01672_c0
 + rxn01222_c0_reverse_e7a5c - rxn01222_c0
 + 0.202 rxn12360_c0_reverse_1fdbb - 0.202 rxn12360_c0
 - rxn01673_c0_reverse_f736f + rxn01673_c0 = 0
 ACYL_DASH_SN_DASH_GLYCEROL_DASH_3P_PL_Cytosol:
 - GLYCEROL_DASH_3_DASH_P_DASH_ACYLTRANSFER_DASH_PL_DASH_RXN_reverse_c99a7
 + GLYCEROL_DASH_3_DASH_P_DASH_ACYLTRANSFER_DASH_PL_DASH_RXN + x_1270
 - x_1269 = 0
 cpd28318_c0: - 0.08 rxn12192_c0_reverse_10826 + 0.08 rxn12192_c0
 + rxn44277_c0_reverse_f6ffe - rxn44277_c0 = 0
 cpd00296_c0: - rxn01351_c0_reverse_08d9b + rxn01351_c0
 + rxn01509_c0_reverse_c18be - rxn01509_c0 + rxn01445_c0_reverse_e75dd
 - rxn01445_c0 = 0
 cpd16646_c0: + rxn12290_c0_reverse_ddf36 - rxn12290_c0
 - rxn12289_c0_reverse_0df61 + rxn12289_c0 = 0
 cpd00118_c0: - rxn00470_c0_reverse_42ad5 + rxn00470_c0 = 0
 ETHANOL_DASH_AMINE_Cytosol: - rxn12419_c0_reverse_f7691 + rxn12419_c0
 = 0
 cpd00170_e0: + rxn01107_c0_reverse_62e5d - rxn01107_c0
 - rxn12200_c0_reverse_02e82 + rxn12200_c0 = 0
 cpd01553_c0: - rxn12299_c0_reverse_d2706 + rxn12299_c0
 + rxn12298_c0_reverse_6acb7 - rxn12298_c0 = 0
 cpd00644_c0: + rxn12510_c0_reverse_e8662 - rxn12510_c0
 - rxn01791_c0_reverse_2cc23 + rxn01791_c0 = 0
 PURINE_Cytosol: - rxn12429_c0_reverse_17c11 + rxn12429_c0 = 0
 cpd00634_e0: + rxn02149_c0_reverse_b28f8 - rxn02149_c0
 + EXF_DASH_CHLOROGENATE_LBRACKET_Extraorganism_RBRACKET__reverse_8e330
 - EXF_DASH_CHLOROGENATE_LBRACKET_Extraorganism_RBRACKET_ = 0
 cpd11456_c0: - rxn06090_c0_reverse_5e199 + rxn06090_c0
 + 0.735 rxn12307_c0_reverse_cfe82 - 0.735 rxn12307_c0 = 0
 cpd00123_c0: + rxn00912_c0_reverse_23517 - rxn00912_c0
 - rxn00902_c0_reverse_e672c + rxn00902_c0 - rxn00903_c0_reverse_8c60f
 + rxn00903_c0 - rxn15467_c0_reverse_81ce7 + rxn15467_c0 = 0
 cpd04511_c0: - rxn04024_c0_reverse_98aa9 + rxn04024_c0
 + rxn04025_c0_reverse_491d8 - rxn04025_c0 = 0
 cpd03118_c0: + rxn03245_c0_reverse_157ba - rxn03245_c0
 + rxn03244_c0_reverse_83dcb - rxn03244_c0 = 0
 cpd00609_e0: + rxn08614_c0_reverse_bda47 - rxn08614_c0
 + EXF_DASH_D_DASH_GLUCARATE_LBRACKET_Extraorganism_RBRACKET__reverse_f139e
 - EXF_DASH_D_DASH_GLUCARATE_LBRACKET_Extraorganism_RBRACKET_ = 0
 C14_COLON_0_DASH_2ENOYLCOA_Cytosol: - rxn02803_c0_reverse_c1dd1
 + rxn02803_c0 - rxn03241_c0_reverse_44fc5 + rxn03241_c0 = 0
 cpd03762_c0: - rxn03897_c0_reverse_ad3b1 + rxn03897_c0
 + rxn00584_c0_reverse_9c4c5 - rxn00584_c0 = 0
 cpd16663_c0: + 0.021 GROWTH_DASH_RXN_reverse_6bca6
 - 0.021 GROWTH_DASH_RXN - 0.8 rxn12340_c0_reverse_adc2f
 + 0.8 rxn12340_c0 = 0
 cpd00129_c0: - rxn05221_c0_reverse_7f2fc + rxn05221_c0
 - rxn12451_c0_reverse_36d10 + rxn12451_c0 - rxn09193_c0_reverse_0061d
 + rxn09193_c0 + rxn09188_c0_reverse_a86f7 - rxn09188_c0
 + rxn41196_c0_reverse_2ab9c - rxn41196_c0 + rxn00929_c0_reverse_055cd
 - rxn00929_c0 = 0
 cpd01352_c0: + rxn03900_c0_reverse_81cc8 - rxn03900_c0 = 0
 cpd00298_c0: - rxn01520_c0_reverse_80f6b + rxn01520_c0
 + rxn01145_c0_reverse_a92f4 - rxn01145_c0 + rxn01513_c0_reverse_0ef59
 - rxn01513_c0 - rxn09014_c0_reverse_95e82 + rxn09014_c0 = 0
 cpd00004_c0: + rxn00589_c0_reverse_9e00a - rxn00589_c0
 - rxn03970_c0_reverse_3d5bd + rxn03970_c0 - rxn01101_c0_reverse_5c292
 + rxn01101_c0 - rxn02774_c0_reverse_0d621 + rxn02774_c0
 - rxn03969_c0_reverse_a1720 + rxn03969_c0 - rxn00504_c0_reverse_5bbb1
 + rxn00504_c0 + NADH_DASH_DEHYDROGENASE_DASH_RXN_reverse_eb679
 - NADH_DASH_DEHYDROGENASE_DASH_RXN + rxn12215_c0_reverse_68c5f
 - rxn12215_c0 - rxn01522_c0_reverse_e9b47 + rxn01522_c0
 - rxn01297_c0_reverse_c2a85 + rxn01297_c0 + rxn03897_c0_reverse_ad3b1
 - rxn03897_c0 + rxn12316_c0_reverse_1fded - rxn12316_c0
 - 2 rxn00211_c0_reverse_3e4c5 + 2 rxn00211_c0
 - rxn08094_c0_reverse_a5cfe + rxn08094_c0 - rxn12277_c0_reverse_25bb7
 + rxn12277_c0 - rxn00154_c0_reverse_67f30 + rxn00154_c0
 + rxn12309_c0_reverse_1042b - rxn12309_c0 + rxn09295_c0_reverse_354db
 - rxn09295_c0 - rxn03249_c0_reverse_5259d + rxn03249_c0
 - rxn12239_c0_reverse_a1aee + rxn12239_c0 - rxn03246_c0_reverse_93213
 + rxn03246_c0 + rxn08975_c0_reverse_12267 - rxn08975_c0
 - rxn01480_c0_reverse_f37c4 + rxn01480_c0 + rxn12355_c0_reverse_ab404
 - rxn12355_c0 - rxn03974_c0_reverse_bfeb1 + rxn03974_c0
 - rxn01331_c0_reverse_39a94 + rxn01331_c0 - rxn12290_c0_reverse_ddf36
 + rxn12290_c0 - rxn01685_c0_reverse_01df7 + rxn01685_c0
 - rxn12279_c0_reverse_d5b2d + rxn12279_c0 - rxn01293_c0_reverse_91d3a
 + rxn01293_c0 - rxn01451_c0_reverse_007d5 + rxn01451_c0
 + rxn12322_c0_reverse_abd61 - rxn12322_c0 - rxn03422_c0_reverse_84b00
 + rxn03422_c0 - rxn12251_c0_reverse_0649a + rxn12251_c0
 + rxn03586_c0_reverse_bec9c - rxn03586_c0 - rxn05326_c0_reverse_7e919
 + rxn05326_c0 - rxn01032_c0_reverse_bad7b + rxn01032_c0
 - rxn04750_c0_reverse_2a2a6 + rxn04750_c0 - rxn05328_c0_reverse_20c79
 + rxn05328_c0 - rxn00171_c0_reverse_94974 + rxn00171_c0
 - rxn00671_c0_reverse_51323 + rxn00671_c0 - rxn01286_c0_reverse_9270e
 + rxn01286_c0 - rxn00781_c0_reverse_762ea + rxn00781_c0
 - rxn12273_c0_reverse_94bf0 + rxn12273_c0 - rxn12242_c0_reverse_4d875
 + rxn12242_c0 - rxn03239_c0_reverse_e8516 + rxn03239_c0
 - rxn03242_c0_reverse_47203 + rxn03242_c0 - rxn05735_c0_reverse_f8529
 + rxn05735_c0 - rxn01094_c0_reverse_846cb + rxn01094_c0
 - rxn00863_c0_reverse_45538 + rxn00863_c0 - rxn03062_c0_reverse_a5bc7
 + rxn03062_c0 - rxn00543_c0_reverse_df82d + rxn00543_c0
 - rxn00584_c0_reverse_9c4c5 + rxn00584_c0 - rxn00248_c0_reverse_0818d
 + rxn00248_c0 - rxn05325_c0_reverse_f2da0 + rxn05325_c0
 - rxn12234_c0_reverse_f0c78 + rxn12234_c0 - 2 rxn00638_c0_reverse_998e3
 + 2 rxn00638_c0 + rxn04113_c0_reverse_d915b - rxn04113_c0
 + rxn12311_c0_reverse_8c971 - rxn12311_c0 - rxn03617_c0_reverse_69746
 + rxn03617_c0 - rxn02939_c0_reverse_b8d87 + rxn02939_c0
 + rxn12233_c0_reverse_9273a - rxn12233_c0 + rxn12324_c0_reverse_29839
 - rxn12324_c0 - rxn06777_c0_reverse_50cd7 + rxn06777_c0
 - rxn02159_c0_reverse_80539 + rxn02159_c0 - rxn04996_c0_reverse_f7c7e
 + rxn04996_c0 - rxn12284_c0_reverse_53ba1 + rxn12284_c0
 - rxn05327_c0_reverse_9892a + rxn05327_c0 - rxn01867_c0_reverse_ea907
 + rxn01867_c0 - rxn12268_c0_reverse_b532f + rxn12268_c0
 - rxn01268_c0_reverse_76fc3 + rxn01268_c0 - rxn02107_c0_reverse_9028d
 + rxn02107_c0 - rxn00834_c0_reverse_0227f + rxn00834_c0
 - rxn00159_c0_reverse_35110 + rxn00159_c0 - 3 rxn00568_c0_reverse_a1c6b
 + 3 rxn00568_c0 - rxn12256_c0_reverse_81239 + rxn12256_c0
 - rxn01011_c0_reverse_0f4e2 + rxn01011_c0 - rxn04954_c0_reverse_87911
 + rxn04954_c0 - rxn12259_c0_reverse_66abf + rxn12259_c0
 - rxn00500_c0_reverse_abe43 + rxn00500_c0 - rxn09953_c0_reverse_f5bd1
 + rxn09953_c0 - rxn00979_c0_reverse_e9063 + rxn00979_c0
 - rxn00083_c0_reverse_7aa1e + rxn00083_c0 - rxn00992_c0_reverse_347e6
 + rxn00992_c0 - rxn00525_c0_reverse_dab5c + rxn00525_c0
 - rxn12298_c0_reverse_6acb7 + rxn12298_c0 - rxn03244_c0_reverse_83dcb
 + rxn03244_c0 - rxn02112_c0_reverse_c4928 + rxn02112_c0
 - rxn00957_c0_reverse_b25dd + rxn00957_c0 - rxn05322_c0_reverse_fab80
 + rxn05322_c0 - rxn05324_c0_reverse_b041c + rxn05324_c0
 - rxn01781_c0_reverse_14eaa + rxn01781_c0 - rxn02066_c0_reverse_5e5fe
 + rxn02066_c0 + rxn12353_c0_reverse_b4bf0 - rxn12353_c0 = 0
 cpd00091_c0: - rxn00710_c0_reverse_4581a + rxn00710_c0
 - rxn03904_c0_reverse_f0a70 + rxn03904_c0 + rxn00119_c0_reverse_29188
 - rxn00119_c0 - rxn00463_c0_reverse_212c5 + rxn00463_c0
 - rxn03130_c0_reverse_c33e1 + rxn03130_c0 + rxn00708_c0_reverse_fe989
 - rxn00708_c0 + rxn00711_c0_reverse_2f39d - rxn00711_c0 = 0
 cpd00128_c0: - rxn00143_c0_reverse_66afb + rxn00143_c0
 - rxn00139_c0_reverse_8174b + rxn00139_c0 - rxn19072_c0_reverse_37d07
 + rxn19072_c0 = 0
 cpd11427_c0: - rxn06043_c0_reverse_57cb0 + rxn06043_c0
 + rxn06044_c0_reverse_b60f7 - rxn06044_c0 + rxn20547_c0_reverse_82a23
 - rxn20547_c0 = 0
 cpd00308_c0: + rxn12206_c0_reverse_c1e99 - rxn12206_c0
 - TRANS_DASH_RXN_DASH_MALONATE_reverse_c3dc2
 + TRANS_DASH_RXN_DASH_MALONATE - rxn12432_c0_reverse_40ed2
 + rxn12432_c0 = 0
 cpd02229_c0: + 0.08 rxn12496_c0_reverse_ff0a4 - 0.08 rxn12496_c0
 - rxn04308_c0_reverse_b89c4 + rxn04308_c0 + rxn03901_c0_reverse_d694e
 - rxn03901_c0 - rxn12306_c0_reverse_01ca5 + rxn12306_c0 = 0
 cpd00011_c0: - rxn00589_c0_reverse_9e00a + rxn00589_c0
 - rxn05346_c0_reverse_53599 + rxn05346_c0 - rxn00313_c0_reverse_f15f4
 + rxn00313_c0 - rxn08094_c0_reverse_a5cfe + rxn08094_c0
 - rxn00154_c0_reverse_67f30 + rxn00154_c0 - rxn12314_c0_reverse_d6204
 + rxn12314_c0 - rxn01802_c0_reverse_9e3ef + rxn01802_c0
 - rxn00251_c0_reverse_b1866 + rxn00251_c0 + rxn15021_c0_reverse_7ca4e
 - rxn15021_c0 - rxn00595_c0_reverse_f4370 + rxn00595_c0
 - rxn01634_c0_reverse_88f19 + rxn01634_c0 - 4 rxn02288_c0_reverse_dc892
 + 4 rxn02288_c0 - 2 rxn02303_c0_reverse_3b873 + 2 rxn02303_c0
 - rxn05345_c0_reverse_d76ed + rxn05345_c0 - rxn00710_c0_reverse_4581a
 + rxn00710_c0 - rxn06090_c0_reverse_5e199 + rxn06090_c0
 + rxn05114_c0_reverse_34e1e - rxn05114_c0 - rxn08043_c0_reverse_11b99
 + rxn08043_c0 - rxn00671_c0_reverse_51323 + rxn00671_c0
 - rxn12327_c0_reverse_860a9 + rxn12327_c0 - rxn12319_c0_reverse_37c95
 + rxn12319_c0 - rxn03062_c0_reverse_a5bc7 + rxn03062_c0
 - rxn00584_c0_reverse_9c4c5 + rxn00584_c0 - rxn05348_c0_reverse_b4227
 + rxn05348_c0 - rxn01000_c0_reverse_3c355 + rxn01000_c0
 - rxn02341_c0_reverse_1a6f7 + rxn02341_c0 - rxn00102_c0_reverse_7b86e
 + rxn00102_c0 - rxn12206_c0_reverse_c1e99 + rxn12206_c0
 - rxn09310_c0_reverse_1afad + rxn09310_c0 - rxn00346_c0_reverse_1d180
 + rxn00346_c0 - 2 rxn00002_c0_reverse_34776 + 2 rxn00002_c0
 - rxn03909_c0_reverse_ae095 + rxn03909_c0 - rxn02507_c0_reverse_414b4
 + rxn02507_c0 + rxn02402_c0_reverse_d4532 - rxn02402_c0
 - rxn05347_c0_reverse_39a4c + rxn05347_c0 - rxn09167_c0_reverse_90de2
 + rxn09167_c0 - rxn02927_c0_reverse_172ad + rxn02927_c0
 - rxn00161_c0_reverse_23eac + rxn00161_c0 - rxn02297_c0_reverse_96fea
 + rxn02297_c0 - rxn05467_c0_reverse_434a2 + rxn05467_c0
 - rxn01268_c0_reverse_76fc3 + rxn01268_c0 - rxn00159_c0_reverse_35110
 + rxn00159_c0 + rxn02277_c0_reverse_c3e02 - rxn02277_c0
 - rxn05344_c0_reverse_57982 + rxn05344_c0 - rxn03630_c0_reverse_def42
 + rxn03630_c0 - rxn02483_c0_reverse_c2902 + rxn02483_c0
 - rxn07465_c0_reverse_a8c94 + rxn07465_c0 - rxn03393_c0_reverse_f213f
 + rxn03393_c0 - rxn00525_c0_reverse_dab5c + rxn00525_c0
 - rxn00101_c0_reverse_6edc5 + rxn00101_c0 - rxn05460_c0_reverse_8c2ca
 + rxn05460_c0 - rxn00470_c0_reverse_42ad5 + rxn00470_c0
 - rxn05343_c0_reverse_aba9f + rxn05343_c0 - rxn08861_c0_reverse_14032
 + rxn08861_c0 - rxn05350_c0_reverse_79ec3 + rxn05350_c0
 - rxn00327_c0_reverse_ce61d + rxn00327_c0 - rxn00199_c0_reverse_0d3eb
 + rxn00199_c0 - rxn00305_c0_reverse_b1f24 + rxn00305_c0 = 0
 cpd00367_c0: + rxn26065_c0_reverse_d1734 - rxn26065_c0
 - rxn12413_c0_reverse_eb58f + rxn12413_c0 + rxn01368_c0_reverse_895ab
 - rxn01368_c0 = 0
 cpd00214_c0: - rxn00943_c0_reverse_a6b46 + rxn00943_c0
 + 0.717 rxn12344_c0_reverse_75205 - 0.717 rxn12344_c0
 + 0.24 rxn12351_c0_reverse_0d460 - 0.24 rxn12351_c0
 - rxn06033_c0_reverse_b392c + rxn06033_c0
 + 0.28 rxn12304_c0_reverse_0c0d8 - 0.28 rxn12304_c0
 - rxn12388_c0_reverse_3e38d + rxn12388_c0 + rxn00947_c0_reverse_e410e
 - rxn00947_c0 = 0
 cpd00587_c0: + rxn01365_c0_reverse_de8be - rxn01365_c0 = 0
 cpd02893_c0: - rxn05115_c0_reverse_952d3 + rxn05115_c0
 + rxn03147_c0_reverse_e6fe4 - rxn03147_c0 = 0
 cpd00876_c0: + rxn01480_c0_reverse_f37c4 - rxn01480_c0 = 0
 cpd00006_c0: + rxn00779_c0_reverse_9042e - rxn00779_c0
 + rxn05339_c0_reverse_7cfa4 - rxn05339_c0 + rxn00611_c0_reverse_350e3
 - rxn00611_c0 - ACETOOHBUTREDUCTOISOM_DASH_RXN_reverse_797f7
 + ACETOOHBUTREDUCTOISOM_DASH_RXN + rxn01643_c0_reverse_7e2ea
 - rxn01643_c0 + rxn09295_c0_reverse_354db - rxn09295_c0
 - rxn00595_c0_reverse_f4370 + rxn00595_c0 - rxn00962_c0_reverse_0f878
 + rxn00962_c0 + rxn03958_c0_reverse_f6c22 - rxn03958_c0
 + rxn00184_c0_reverse_bf801 - rxn00184_c0
 + 0.07 rxn12496_c0_reverse_ff0a4 - 0.07 rxn12496_c0
 - rxn12352_c0_reverse_d2021 + rxn12352_c0 + rxn00509_c0_reverse_e58fa
 - rxn00509_c0 + rxn00086_c0_reverse_3a823 - rxn00086_c0
 + rxn05336_c0_reverse_6ca64 - rxn05336_c0 + rxn01740_c0_reverse_22752
 - rxn01740_c0 + 3 rxn00623_c0_reverse_f1142 - 3 rxn00623_c0
 - rxn12318_c0_reverse_497ba + rxn12318_c0 + rxn05337_c0_reverse_c9ff5
 - rxn05337_c0 + rxn02465_c0_reverse_3e5e6 - rxn02465_c0
 + rxn02373_c0_reverse_5567a - rxn02373_c0 + rxn01277_c0_reverse_88251
 - rxn01277_c0 - rxn05289_c0_reverse_06e74 + rxn05289_c0
 + rxn00686_c0_reverse_06367 - rxn00686_c0 + rxn02474_c0_reverse_881e6
 - rxn02474_c0 + rxn02929_c0_reverse_c7e84 - rxn02929_c0
 + rxn00196_c0_reverse_3cc98 - rxn00196_c0 - rxn12326_c0_reverse_9d274
 + rxn12326_c0 + rxn00161_c0_reverse_23eac - rxn00161_c0
 + rxn05342_c0_reverse_cfe2f - rxn05342_c0 + rxn01301_c0_reverse_0fe7f
 - rxn01301_c0 - rxn12354_c0_reverse_913b8 + rxn12354_c0
 + rxn02285_c0_reverse_5c70a - rxn02285_c0 - rxn12313_c0_reverse_56e11
 + rxn12313_c0 + rxn05341_c0_reverse_c963e - rxn05341_c0
 + rxn05340_c0_reverse_36403 - rxn05340_c0 + rxn02003_c0_reverse_8665b
 - rxn02003_c0 - rxn02186_c0_reverse_23de4 + rxn02186_c0
 + rxn01790_c0_reverse_d68bb - rxn01790_c0 - rxn00077_c0_reverse_deb34
 + rxn00077_c0 - rxn00083_c0_reverse_7aa1e + rxn00083_c0
 + rxn00085_c0_reverse_ae294 - rxn00085_c0 + rxn19846_c0_reverse_1ddb1
 - rxn19846_c0 + rxn05338_c0_reverse_75efd - rxn05338_c0
 + rxn00907_c0_reverse_cad1b - rxn00907_c0 - rxn12356_c0_reverse_073a5
 + rxn12356_c0 + rxn00929_c0_reverse_055cd - rxn00929_c0
 - rxn07577_c0_reverse_263c7 + rxn07577_c0 + rxn00199_c0_reverse_0d3eb
 - rxn00199_c0 = 0
 cpd16657_c0: - rxn12409_c0_reverse_a865e + rxn12409_c0
 + rxn12297_c0_reverse_17183 - rxn12297_c0 = 0
 cpd00875_c0: - rxn02404_c0_reverse_cb0b0 + rxn02404_c0
 + rxn02405_c0_reverse_c0fb5 - rxn02405_c0 = 0
 cpd01006_c0: - rxn12410_c0_reverse_0398a + rxn12410_c0
 + rxn12299_c0_reverse_d2706 - rxn12299_c0 = 0
 cpd16658_c0: - rxn12411_c0_reverse_bbf81 + rxn12411_c0
 + rxn12238_c0_reverse_7d85b - rxn12238_c0 = 0
 cpd07333_c0: + rxn12227_c0_reverse_f6816 - rxn12227_c0
 - rxn12412_c0_reverse_78db1 + rxn12412_c0 = 0
 cpd16659_c0: - rxn12227_c0_reverse_f6816 + rxn12227_c0
 + rxn12228_c0_reverse_9e732 - rxn12228_c0 = 0
 cpd00294_c0: - rxn09013_c0_reverse_90828 + rxn09013_c0
 + rxn01127_c0_reverse_b0168 - rxn01127_c0 + rxn01507_c0_reverse_17467
 - rxn01507_c0 = 0
 cpd00060_e0:
 + EXF_DASH_MET_LBRACKET_Extraorganism_RBRACKET__reverse_71074
 - EXF_DASH_MET_LBRACKET_Extraorganism_RBRACKET_
 + rxn05219_c0_reverse_e0806 - rxn05219_c0 = 0
 cpd02160_c0: - rxn02927_c0_reverse_172ad + rxn02927_c0
 + rxn02944_c0_reverse_14577 - rxn02944_c0 = 0
 cpd00153_c0: + rxn03897_c0_reverse_ad3b1 - rxn03897_c0
 - rxn01032_c0_reverse_bad7b + rxn01032_c0
 - TRANS_DASH_RXNIM_DASH_5803_reverse_80e3e + TRANS_DASH_RXNIM_DASH_5803
 - rxn12435_c0_reverse_f0c8d + rxn12435_c0 = 0
 cpd01433_c0: + rxn12295_c0_reverse_64262 - rxn12295_c0 = 0
 cpd00465_c0: - rxn01746_c0_reverse_f4eaf + rxn01746_c0
 + rxn00327_c0_reverse_ce61d - rxn00327_c0 = 0
 C1_Cytosol: + rxn03904_c0_reverse_f0a70 - rxn03904_c0
 - rxn03164_c0_reverse_fd17f + rxn03164_c0 = 0
 cpd10515_c0: - rxn12504_c0_reverse_8dd4d + rxn12504_c0
 - rxn12420_c0_reverse_326bd + rxn12420_c0 - rxn02056_c0_reverse_cdee7
 + rxn02056_c0 + rxn00224_c0_reverse_d0f78 - rxn00224_c0 = 0
 cpd00998_c0: - rxn12402_c0_reverse_4f35d + rxn12402_c0
 + rxn12233_c0_reverse_9273a - rxn12233_c0 = 0
 cpd00986_e0: - rxn01364_c0_reverse_c94af + rxn01364_c0
 - rxn01742_c0_reverse_1275e + rxn01742_c0 + rxn12199_c0_reverse_3571b
 - rxn12199_c0 + rxn12363_c0_reverse_7cafd - rxn12363_c0
 - rxn12200_c0_reverse_02e82 + rxn12200_c0 = 0
 cpd00421_c0: - rxn01352_c0_reverse_998e4 + rxn01352_c0 = 0
 cpd16594_c0: - rxn06723_c0_reverse_18b5b + rxn06723_c0
 - rxn12330_c0_reverse_001d7 + rxn12330_c0 + rxn06729_c0_reverse_4b155
 - rxn06729_c0 = 0
 cpd00020_c0: + DgoA_reverse_449c8 - DgoA - rxn05560_c0_reverse_662b5
 + rxn05560_c0 + rxn00154_c0_reverse_67f30 - rxn00154_c0
 - rxn00328_c0_reverse_2373d + rxn00328_c0 - rxn00166_c0_reverse_693ae
 + rxn00166_c0 - 2 rxn15021_c0_reverse_7ca4e + 2 rxn15021_c0
 - rxn00191_c0_reverse_beaba + rxn00191_c0 - rxn00950_c0_reverse_f76b0
 + rxn00950_c0 - rxn03841_c0_reverse_be66b + rxn03841_c0
 + rxn08043_c0_reverse_11b99 - rxn08043_c0 - rxn08792_c0_reverse_a4e55
 + rxn08792_c0 - rxn00289_c0_reverse_589d3 + rxn00289_c0
 - rxn01365_c0_reverse_de8be + rxn01365_c0 - rxn09218_c0_reverse_86a26
 + rxn09218_c0 + rxn03909_c0_reverse_ae095 - rxn03909_c0
 + rxn09167_c0_reverse_90de2 - rxn09167_c0 - rxn00727_c0_reverse_7475f
 + rxn00727_c0 - rxn00161_c0_reverse_23eac + rxn00161_c0
 - rxn00159_c0_reverse_35110 + rxn00159_c0 - rxn02177_c0_reverse_3e2ec
 + rxn02177_c0 - rxn03884_c0_reverse_82f7a + rxn03884_c0
 + rxn00966_c0_reverse_717ad - rxn00966_c0 - rxn00500_c0_reverse_abe43
 + rxn00500_c0 + rxn00147_c0_reverse_87430 - rxn00147_c0
 + rxn01644_c0_reverse_e93fc - rxn01644_c0 - rxn08783_c0_reverse_99f14
 + rxn08783_c0 - rxn08291_c0_reverse_9e151 + rxn08291_c0 = 0
 cpd00274_c0: - rxn01019_c0_reverse_56c77 + rxn01019_c0
 + rxn01434_c0_reverse_c28bc - rxn01434_c0 = 0
 cpd00005_c0: - rxn00779_c0_reverse_9042e + rxn00779_c0
 - rxn05339_c0_reverse_7cfa4 + rxn05339_c0 - rxn00611_c0_reverse_350e3
 + rxn00611_c0 + ACETOOHBUTREDUCTOISOM_DASH_RXN_reverse_797f7
 - ACETOOHBUTREDUCTOISOM_DASH_RXN - rxn01643_c0_reverse_7e2ea
 + rxn01643_c0 - rxn09295_c0_reverse_354db + rxn09295_c0
 + rxn00595_c0_reverse_f4370 - rxn00595_c0 + rxn00962_c0_reverse_0f878
 - rxn00962_c0 - rxn03958_c0_reverse_f6c22 + rxn03958_c0
 - rxn00184_c0_reverse_bf801 + rxn00184_c0 + rxn12352_c0_reverse_d2021
 - rxn12352_c0 - rxn00509_c0_reverse_e58fa + rxn00509_c0
 - rxn00086_c0_reverse_3a823 + rxn00086_c0 - rxn05336_c0_reverse_6ca64
 + rxn05336_c0 - rxn01740_c0_reverse_22752 + rxn01740_c0
 - 3 rxn00623_c0_reverse_f1142 + 3 rxn00623_c0
 + rxn12318_c0_reverse_497ba - rxn12318_c0 - rxn05337_c0_reverse_c9ff5
 + rxn05337_c0 - rxn02465_c0_reverse_3e5e6 + rxn02465_c0
 - rxn02373_c0_reverse_5567a + rxn02373_c0 - rxn01277_c0_reverse_88251
 + rxn01277_c0 + rxn05289_c0_reverse_06e74 - rxn05289_c0
 - rxn00686_c0_reverse_06367 + rxn00686_c0 - rxn02474_c0_reverse_881e6
 + rxn02474_c0 - rxn02929_c0_reverse_c7e84 + rxn02929_c0
 - rxn00196_c0_reverse_3cc98 + rxn00196_c0 + rxn12326_c0_reverse_9d274
 - rxn12326_c0 - rxn00161_c0_reverse_23eac + rxn00161_c0
 - rxn05342_c0_reverse_cfe2f + rxn05342_c0 - rxn01301_c0_reverse_0fe7f
 + rxn01301_c0 + rxn12354_c0_reverse_913b8 - rxn12354_c0
 - rxn02285_c0_reverse_5c70a + rxn02285_c0 + rxn12313_c0_reverse_56e11
 - rxn12313_c0 - rxn05341_c0_reverse_c963e + rxn05341_c0
 - rxn05340_c0_reverse_36403 + rxn05340_c0 - rxn02003_c0_reverse_8665b
 + rxn02003_c0 + rxn02186_c0_reverse_23de4 - rxn02186_c0
 - rxn01790_c0_reverse_d68bb + rxn01790_c0 + rxn00083_c0_reverse_7aa1e
 - rxn00083_c0 - rxn00085_c0_reverse_ae294 + rxn00085_c0
 - rxn19846_c0_reverse_1ddb1 + rxn19846_c0 - rxn05338_c0_reverse_75efd
 + rxn05338_c0 - rxn00907_c0_reverse_cad1b + rxn00907_c0
 + rxn12356_c0_reverse_073a5 - rxn12356_c0 - rxn00929_c0_reverse_055cd
 + rxn00929_c0 + rxn07577_c0_reverse_263c7 - rxn07577_c0
 - rxn00199_c0_reverse_0d3eb + rxn00199_c0 = 0
 cpd00283_c0: + rxn01466_c0_reverse_6b2ec - rxn01466_c0
 - rxn01213_c0_reverse_698a2 + rxn01213_c0 = 0
 cpd16607_c0: + rxn12253_c0_reverse_f6986 - rxn12253_c0
 - rxn12254_c0_reverse_ac3c1 + rxn12254_c0 = 0
 cpd01088_c0: + rxn12234_c0_reverse_f0c78 - rxn12234_c0
 - rxn02066_c0_reverse_5e5fe + rxn02066_c0 + rxn12232_c0_reverse_a85f0
 - rxn12232_c0 = 0
 cpd00931_c0: - rxn02475_c0_reverse_0a9f5 + rxn02475_c0
 - rxn02474_c0_reverse_881e6 + rxn02474_c0 = 0
 cpd00137_e0:
 + EXF_DASH_CIT_LBRACKET_Extraorganism_RBRACKET__reverse_bf0ff
 - EXF_DASH_CIT_LBRACKET_Extraorganism_RBRACKET_
 + TRANS_DASH_RXN_DASH_201_reverse_4fd6f - TRANS_DASH_RXN_DASH_201
 + rxn12371_c0_reverse_a7a4a - rxn12371_c0 = 0
 cpd00738_c0: + rxn00420_c0_reverse_c9664 - rxn00420_c0
 + rxn02914_c0_reverse_5766b - rxn02914_c0 = 0
 cpd00780_c0: - rxn00993_c0_reverse_f3858 + rxn00993_c0 = 0
 cpd01476_c0: - rxn12219_c0_reverse_43385 + rxn12219_c0
 + rxn00224_c0_reverse_d0f78 - rxn00224_c0 = 0
 cpd01107_c0: - rxn12385_c0_reverse_a935c + rxn12385_c0
 + rxn09453_c0_reverse_59a33 - rxn09453_c0 - rxn08439_c0_reverse_b2eb5
 + rxn08439_c0 = 0
 cpd00249_e0: + rxn12460_c0_reverse_fb4bd - rxn12460_c0
 + EXF_DASH_URIDINE_LBRACKET_Extraorganism_RBRACKET__reverse_89f39
 - EXF_DASH_URIDINE_LBRACKET_Extraorganism_RBRACKET_ = 0
 cpd00320_e0:
 + EXF_DASH_CPD_DASH_302_LBRACKET_Extraorganism_RBRACKET__reverse_d94ca
 - EXF_DASH_CPD_DASH_302_LBRACKET_Extraorganism_RBRACKET_
 + rxn12404_c0_reverse_6815f - rxn12404_c0 = 0
 cpd02654_c0: + rxn02305_c0_reverse_6ed69 - rxn02305_c0
 - rxn03075_c0_reverse_5ebcd + rxn03075_c0 - rxn09310_c0_reverse_1afad
 + rxn09310_c0 = 0
 cpd16668_c0: - rxn12359_c0_reverse_289a6 + rxn12359_c0
 + rxn12358_c0_reverse_c30d7 - rxn12358_c0 + rxn12357_c0_reverse_bbe8a
 - rxn12357_c0 = 0
 cpd16632_c0: + rxn12325_c0_reverse_d615b - rxn12325_c0
 - rxn12326_c0_reverse_9d274 + rxn12326_c0 = 0
 cpd00096_c0: - rxn06076_c0_reverse_25cbd + rxn06076_c0
 - rxn00364_c0_reverse_dd122 + rxn00364_c0 + rxn00409_c0_reverse_250bc
 - rxn00409_c0 = 0
 cpd00246_e0: + rxn12445_c0_reverse_79161 - rxn12445_c0
 + EXF_DASH_INOSINE_LBRACKET_Extraorganism_RBRACKET__reverse_5ac38
 - EXF_DASH_INOSINE_LBRACKET_Extraorganism_RBRACKET_ = 0
 cpd00379_c0: - rxn12425_c0_reverse_e5b69 + rxn12425_c0
 + rxn12263_c0_reverse_4d8db - rxn12263_c0 = 0
 cpd03123_c0: - rxn03249_c0_reverse_5259d + rxn03249_c0
 - rxn00874_c0_reverse_bd4de + rxn00874_c0 = 0
 cpd00297_c0: + rxn01512_c0_reverse_5d6a2 - rxn01512_c0
 - rxn01513_c0_reverse_0ef59 + rxn01513_c0
 - 1.67 rxn12335_c0_reverse_6be8f + 1.67 rxn12335_c0 = 0
 cpd12133_c0: + 0.08 rxn12192_c0_reverse_10826 - 0.08 rxn12192_c0
 - rxn44277_c0_reverse_f6ffe + rxn44277_c0 = 0
 cpd02964_c0: + rxn03164_c0_reverse_fd17f - rxn03164_c0
 - rxn02011_c0_reverse_5a61e + rxn02011_c0 = 0
 cpd00957_c0: + rxn02475_c0_reverse_0a9f5 - rxn02475_c0
 - rxn00300_c0_reverse_7e153 + rxn00300_c0 = 0
 cpd00435_e0:
 + EXF_DASH_BENZYL_DASH_ALCOHOL_LBRACKET_Extraorganism_RBRACKET__reverse_fb5dd
 - EXF_DASH_BENZYL_DASH_ALCOHOL_LBRACKET_Extraorganism_RBRACKET_
 + rxn12384_c0_reverse_8d22d - rxn12384_c0 = 0
 cpd02113_c0: + 1.67 rxn12335_c0_reverse_6be8f - 1.67 rxn12335_c0
 + rxn02003_c0_reverse_8665b - rxn02003_c0 = 0
 cpd01107_e0: + rxn12385_c0_reverse_a935c - rxn12385_c0
 + EXF_DASH_C10_COLON_0_LBRACKET_Extraorganism_RBRACKET__reverse_6b321
 - EXF_DASH_C10_COLON_0_LBRACKET_Extraorganism_RBRACKET_ = 0
 cpd00383_c0: + rxn01742_c0_reverse_1275e - rxn01742_c0
 - rxn09256_c0_reverse_5e3c7 + rxn09256_c0 + rxn01739_c0_reverse_40beb
 - rxn01739_c0 + rxn01740_c0_reverse_22752 - rxn01740_c0 = 0
 cpd00320_c0: - rxn00348_c0_reverse_880c0 + rxn00348_c0
 - rxn12404_c0_reverse_6815f + rxn12404_c0 = 0
 cpd11465_c0: - rxn05329_c0_reverse_d98be + rxn05329_c0
 - rxn05322_c0_reverse_fab80 + rxn05322_c0 = 0
 cpd00277_c0: - rxn12416_c0_reverse_f9e54 + rxn12416_c0
 - rxn01445_c0_reverse_e75dd + rxn01445_c0 - rxn01352_c0_reverse_998e4
 + rxn01352_c0 = 0
 cpd00064_c0: + rxn01019_c0_reverse_56c77 - rxn01019_c0
 - rxn01636_c0_reverse_84dff + rxn01636_c0 - rxn09048_c0_reverse_34b99
 + rxn09048_c0 + rxn00470_c0_reverse_42ad5 - rxn00470_c0
 - rxn00469_c0_reverse_1b6e4 + rxn00469_c0 = 0
 cpd00699_c0: - rxn02212_c0_reverse_54d5b + rxn02212_c0 + x_780 - x_779
 + rxn02213_c0_reverse_d7e4f - rxn02213_c0 = 0
 cpd26668_c0: - 0.02 rxn12192_c0_reverse_10826 + 0.02 rxn12192_c0
 + rxn43736_c0_reverse_eccd9 - rxn43736_c0 = 0
 cpd01630_c0: - rxn02782_c0_reverse_04e98 + rxn02782_c0
 - rxn12434_c0_reverse_094a5 + rxn12434_c0 - rxn00588_c0_reverse_90f98
 + rxn00588_c0 = 0
 cpd00807_c0: + rxn02320_c0_reverse_9f689 - rxn02320_c0
 + rxn02160_c0_reverse_d62d3 - rxn02160_c0 = 0
 cpd16644_c0: + rxn12257_c0_reverse_ff5eb - rxn12257_c0
 - rxn12256_c0_reverse_81239 + rxn12256_c0 = 0
 cpd00604_e0:
 + EXF_DASH_COUMARATE_LBRACKET_Extraorganism_RBRACKET__reverse_411ef
 - EXF_DASH_COUMARATE_LBRACKET_Extraorganism_RBRACKET_
 + rxn12400_c0_reverse_20d36 - rxn12400_c0 = 0
 cpd01716_e0: + rxn12374_c0_reverse_4e8a9 - rxn12374_c0 = 0
 cpd00086_c0: + rxn00670_c0_reverse_b91ec - rxn00670_c0
 - rxn00679_c0_reverse_243e0 + rxn00679_c0 - rxn00671_c0_reverse_51323
 + rxn00671_c0 - rxn00674_c0_reverse_a763e + rxn00674_c0
 + rxn00676_c0_reverse_97437 - rxn00676_c0 = 0
 cpd27340_c0: - rxn20526_c0_reverse_6eb70 + rxn20526_c0
 + 0.116 rxn12307_c0_reverse_cfe82 - 0.116 rxn12307_c0
 + 2 rxn19256_c0_reverse_fc363 - 2 rxn19256_c0 = 0
 cpd00012_c0: - rxn01519_c0_reverse_4bfd7 + rxn01519_c0
 - rxn00301_c0_reverse_bcf0e + rxn00301_c0 - rxn06433_c0_reverse_b302b
 + rxn06433_c0 - rxn06043_c0_reverse_57cb0 + rxn06043_c0
 + rxn01362_c0_reverse_415bb - rxn01362_c0 - rxn05120_c0_reverse_6f116
 + rxn05120_c0 - rxn01571_c0_reverse_2e910 + rxn01571_c0
 - rxn04753_c0_reverse_d3920 + rxn04753_c0 - rxn00300_c0_reverse_7e153
 + rxn00300_c0 - rxn05736_c0_reverse_9104b + rxn05736_c0
 - rxn02305_c0_reverse_6ed69 + rxn02305_c0 - rxn01427_c0_reverse_2284d
 + rxn01427_c0 - rxn00122_c0_reverse_784de + rxn00122_c0
 - rxn02155_c0_reverse_fd760 + rxn02155_c0 - rxn12254_c0_reverse_ac3c1
 + rxn12254_c0 - rxn12227_c0_reverse_f6816 + rxn12227_c0
 - rxn44292_c0_reverse_16d1f + rxn44292_c0 - 5 rxn03891_c0_reverse_b37bf
 + 5 rxn03891_c0 - rxn01351_c0_reverse_08d9b + rxn01351_c0
 - rxn09013_c0_reverse_90828 + rxn09013_c0 - rxn00367_c0_reverse_8ab6d
 + rxn00367_c0 - rxn00175_c0_reverse_c6ef7 + rxn00175_c0
 - rxn00917_c0_reverse_35aaa + rxn00917_c0 - rxn12282_c0_reverse_ba0b6
 + rxn12282_c0 - rxn48235_c0_reverse_cb3b8 + rxn48235_c0
 - rxn43736_c0_reverse_eccd9 + rxn43736_c0 - rxn12292_c0_reverse_021f3
 + rxn12292_c0 - rxn47831_c0_reverse_68e43 + rxn47831_c0
 - rxn44809_c0_reverse_8ad86 + rxn44809_c0 + rxn00139_c0_reverse_8174b
 - rxn00139_c0 - rxn12271_c0_reverse_7660f + rxn12271_c0
 - rxn41935_c0_reverse_db2c5 + rxn41935_c0 - rxn43380_c0_reverse_45ca6
 + rxn43380_c0 - rxn01791_c0_reverse_2cc23 + rxn01791_c0
 + rxn00941_c0_reverse_91e08 - rxn00941_c0 - 8 rxn04308_c0_reverse_b89c4
 + 8 rxn04308_c0 - rxn09444_c0_reverse_6bd76 + rxn09444_c0
 - rxn03173_c0_reverse_e93ab + rxn03173_c0 - rxn02405_c0_reverse_c0fb5
 + rxn02405_c0 - rxn12276_c0_reverse_4b77d + rxn12276_c0
 - rxn09452_c0_reverse_d1ec4 + rxn09452_c0 + rxn00791_c0_reverse_c2912
 - rxn00791_c0 - rxn48506_c0_reverse_07d35 + rxn48506_c0
 - rxn44277_c0_reverse_f6ffe + rxn44277_c0 - rxn00105_c0_reverse_b71d3
 + rxn00105_c0 + rxn01544_c0_reverse_f6321 - rxn01544_c0
 - rxn47838_c0_reverse_a4405 + rxn47838_c0 - rxn01222_c0_reverse_e7a5c
 + rxn01222_c0 - rxn12287_c0_reverse_c5869 + rxn12287_c0
 + rxn00789_c0_reverse_0ebce - rxn00789_c0 - rxn06442_c0_reverse_c8767
 + rxn06442_c0 - rxn41927_c0_reverse_ced6b + rxn41927_c0
 - rxn09453_c0_reverse_59a33 + rxn09453_c0 + rxn00915_c0_reverse_c94c3
 - rxn00915_c0 - rxn47732_c0_reverse_706b4 + rxn47732_c0
 - rxn40608_c0_reverse_36c97 + rxn40608_c0 - rxn09310_c0_reverse_1afad
 + rxn09310_c0 + rxn00836_c0_reverse_48e4c - rxn00836_c0
 - rxn46689_c0_reverse_10181 + rxn46689_c0 - rxn02201_c0_reverse_551c1
 + rxn02201_c0 + rxn00790_c0_reverse_86aeb - rxn00790_c0
 - rxn09449_c0_reverse_0b61b + rxn09449_c0 - rxn01466_c0_reverse_6b2ec
 + rxn01466_c0 + rxn02402_c0_reverse_d4532 - rxn02402_c0
 - rxn01213_c0_reverse_698a2 + rxn01213_c0 - rxn00213_c0_reverse_0365f
 + rxn00213_c0 - rxn03893_c0_reverse_f6334 + rxn03893_c0
 - rxn08981_c0_reverse_9dac7 + rxn08981_c0 - rxn00674_c0_reverse_a763e
 + rxn00674_c0 - rxn41196_c0_reverse_2ab9c + rxn41196_c0
 - rxn12263_c0_reverse_4d8db + rxn12263_c0 - rxn09177_c0_reverse_ef483
 + rxn09177_c0 - rxn41902_c0_reverse_1375a + rxn41902_c0
 + rxn00001_c0_reverse_24410 - rxn00001_c0 - rxn02175_c0_reverse_f2029
 + rxn02175_c0 - rxn00463_c0_reverse_212c5 + rxn00463_c0
 - rxn12360_c0_reverse_1fdbb + rxn12360_c0 - rxn12361_c0_reverse_35c09
 + rxn12361_c0 - rxn00126_c0_reverse_c47fb + rxn00126_c0
 - rxn12262_c0_reverse_d52a0 + rxn12262_c0 - rxn00063_c0_reverse_f75e0
 + rxn00063_c0 - rxn46484_c0_reverse_80bc7 + rxn46484_c0
 + rxn00711_c0_reverse_2f39d - rxn00711_c0 - rxn01675_c0_reverse_42827
 + rxn01675_c0 - rxn12288_c0_reverse_8e47c + rxn12288_c0
 - rxn09014_c0_reverse_95e82 + rxn09014_c0 - rxn00293_c0_reverse_820c7
 + rxn00293_c0 - rxn02296_c0_reverse_115eb + rxn02296_c0
 - rxn06443_c0_reverse_a6b8a + rxn06443_c0 - rxn01434_c0_reverse_c28bc
 + rxn01434_c0 - rxn00379_c0_reverse_79b90 + rxn00379_c0
 - rxn00190_c0_reverse_12593 + rxn00190_c0 - rxn01182_c0_reverse_aefb6
 + rxn01182_c0 - rxn03907_c0_reverse_daf14 + rxn03907_c0
 - rxn02834_c0_reverse_537f6 + rxn02834_c0 - rxn00947_c0_reverse_e410e
 + rxn00947_c0 = 0
 cpd11488_c0: - rxn05339_c0_reverse_7cfa4 + rxn05339_c0
 - rxn05347_c0_reverse_39a4c + rxn05347_c0 = 0
 cpd00102_c0: + rxn00779_c0_reverse_9042e - rxn00779_c0
 + rxn00747_c0_reverse_9d23d - rxn00747_c0 + rxn00781_c0_reverse_762ea
 - rxn00781_c0 - rxn01964_c0_reverse_9ec1a + rxn01964_c0
 + rxn03909_c0_reverse_ae095 - rxn03909_c0 - rxn00786_c0_reverse_4b362
 + rxn00786_c0 + rxn01333_c0_reverse_15140 - rxn01333_c0
 - rxn03884_c0_reverse_82f7a + rxn03884_c0 + rxn00785_c0_reverse_f6e32
 - rxn00785_c0 + rxn01200_c0_reverse_327cb - rxn01200_c0 = 0
 cpd00218_c0: - rxn00938_c0_reverse_e1115 + rxn00938_c0
 + rxn08981_c0_reverse_9dac7 - rxn08981_c0 = 0
 cpd00027_e0: + rxn12200_c0_reverse_02e82 - rxn12200_c0
 + EXF_DASH_GLC_LBRACKET_Extraorganism_RBRACKET__reverse_9c5ff
 - EXF_DASH_GLC_LBRACKET_Extraorganism_RBRACKET_ = 0
 cpd00015_c0: + rxn12275_c0_reverse_d61b1 - rxn12275_c0
 + rxn12286_c0_reverse_d1c2e - rxn12286_c0 + rxn12253_c0_reverse_f6986
 - rxn12253_c0 + rxn01802_c0_reverse_9e3ef - rxn01802_c0
 + rxn10770_c0_reverse_d53c0 - rxn10770_c0 - rxn00122_c0_reverse_784de
 + rxn00122_c0 + rxn12270_c0_reverse_64c08 - rxn12270_c0
 + rxn12228_c0_reverse_9e732 - rxn12228_c0 + rxn08053_c0_reverse_6b9e0
 - rxn08053_c0 + 0.07 rxn12496_c0_reverse_ff0a4 - 0.07 rxn12496_c0
 - rxn10126_c0_reverse_95955 + rxn10126_c0 + rxn12261_c0_reverse_cc8e1
 - rxn12261_c0 + rxn03251_c0_reverse_f2f8c - rxn03251_c0
 + rxn08556_c0_reverse_cd61c - rxn08556_c0 + rxn02720_c0_reverse_8aa9d
 - rxn02720_c0 + rxn02679_c0_reverse_bdea5 - rxn02679_c0
 + rxn02803_c0_reverse_c1dd1 - rxn02803_c0 + rxn12281_c0_reverse_43b2b
 - rxn12281_c0 + rxn12264_c0_reverse_3cc11 - rxn12264_c0
 + rxn04752_c0_reverse_3bf35 - rxn04752_c0 + rxn09188_c0_reverse_a86f7
 - rxn09188_c0 + rxn00872_c0_reverse_5565a - rxn00872_c0
 + rxn03253_c0_reverse_89a23 - rxn03253_c0 + rxn00946_c0_reverse_db319
 - rxn00946_c0 + rxn12249_c0_reverse_80b67 - rxn12249_c0
 + rxn08783_c0_reverse_99f14 - rxn08783_c0 + rxn08291_c0_reverse_9e151
 - rxn08291_c0 = 0
 cpd16603_c0: - rxn12351_c0_reverse_0d460 + rxn12351_c0
 - rxn12357_c0_reverse_bbe8a + rxn12357_c0 = 0
 cpd00041_c0: + rxn06433_c0_reverse_b302b - rxn06433_c0
 - TRANS_DASH_RXN_DASH_L_DASH_ASPARTATE_reverse_1aaca
 + TRANS_DASH_RXN_DASH_L_DASH_ASPARTATE - rxn05152_c0_reverse_3e5ca
 + rxn05152_c0 + rxn00347_c0_reverse_4aa4c - rxn00347_c0
 + rxn00337_c0_reverse_8318a - rxn00337_c0 + rxn03147_c0_reverse_e6fe4
 - rxn03147_c0 + rxn47838_c0_reverse_a4405 - rxn47838_c0
 + rxn00346_c0_reverse_1d180 - rxn00346_c0 + rxn00348_c0_reverse_880c0
 - rxn00348_c0 + rxn00838_c0_reverse_57617 - rxn00838_c0
 + rxn00260_c0_reverse_b9076 - rxn00260_c0 + rxn01018_c0_reverse_7ccc7
 - rxn01018_c0 - rxn00342_c0_reverse_235bc + rxn00342_c0
 + rxn00262_c0_reverse_9d1cf - rxn00262_c0 - rxn12439_c0_reverse_98086
 + rxn12439_c0 + rxn01434_c0_reverse_c28bc - rxn01434_c0
 + rxn00338_c0_reverse_0c70e - rxn00338_c0 = 0
 cpd11466_c0: - rxn12309_c0_reverse_1042b + rxn12309_c0
 + 0.022 rxn12342_c0_reverse_be5cf - 0.022 rxn12342_c0
 + rxn05344_c0_reverse_57982 - rxn05344_c0 + rxn08434_c0_reverse_c9a51
 - rxn08434_c0 = 0
 cpd00080_c0:
 + GLYCEROL_DASH_3_DASH_P_DASH_ACYLTRANSFER_DASH_PL_DASH_RXN_reverse_c99a7
 - GLYCEROL_DASH_3_DASH_P_DASH_ACYLTRANSFER_DASH_PL_DASH_RXN
 - rxn00615_c0_reverse_413b8 + rxn00615_c0 + rxn00611_c0_reverse_350e3
 - rxn00611_c0 + rxn08556_c0_reverse_cd61c - rxn08556_c0
 + GLYCEROL_DASH_3_DASH_P_DASH_ACYLTRANSFER_DASH_TAG_DASH_RXN_reverse_5caf4
 - GLYCEROL_DASH_3_DASH_P_DASH_ACYLTRANSFER_DASH_TAG_DASH_RXN
 + rxn20547_c0_reverse_82a23 - rxn20547_c0 = 0
 cpd00383_e0: + rxn09256_c0_reverse_5e3c7 - rxn09256_c0
 + EXF_DASH_SHIKIMATE_LBRACKET_Extraorganism_RBRACKET__reverse_0a3ca
 - EXF_DASH_SHIKIMATE_LBRACKET_Extraorganism_RBRACKET_ = 0
 cpd02826_c0: + rxn02937_c0_reverse_ee6a2 - rxn02937_c0
 - rxn03084_c0_reverse_df786 + rxn03084_c0 = 0
 cpd03846_c0: + rxn09444_c0_reverse_6bd76 - rxn09444_c0
 - rxn12234_c0_reverse_f0c78 + rxn12234_c0 - rxn08447_c0_reverse_8d4c6
 + rxn08447_c0 - rxn12395_c0_reverse_638bc + rxn12395_c0
 - rxn12232_c0_reverse_a85f0 + rxn12232_c0 = 0
 cpd02152_c0: + rxn00802_c0_reverse_5f20a - rxn00802_c0
 - rxn01434_c0_reverse_c28bc + rxn01434_c0 = 0
 cpd00062_c0: - rxn00117_c0_reverse_96cd0 + rxn00117_c0
 + rxn00412_c0_reverse_f611b - rxn00412_c0 + rxn00213_c0_reverse_0365f
 - rxn00213_c0 + rxn00463_c0_reverse_212c5 - rxn00463_c0
 + 0.259 rxn12361_c0_reverse_35c09 - 0.259 rxn12361_c0
 + rxn00293_c0_reverse_820c7 - rxn00293_c0 = 0
 cpd00868_c0: - rxn00527_c0_reverse_08f10 + rxn00527_c0
 - rxn01268_c0_reverse_76fc3 + rxn01268_c0 = 0
 cpd00219_c0: - rxn05036_c0_reverse_a2fdd + rxn05036_c0
 + rxn01000_c0_reverse_3c355 - rxn01000_c0 + rxn01268_c0_reverse_76fc3
 - rxn01268_c0 - rxn01256_c0_reverse_fefb2 + rxn01256_c0 = 0
 cpd11482_c0: + rxn05333_c0_reverse_d5880 - rxn05333_c0
 + rxn05338_c0_reverse_75efd - rxn05338_c0 = 0
 cpd12003_c0: + 0.07 rxn12192_c0_reverse_10826 - 0.07 rxn12192_c0
 - rxn44809_c0_reverse_8ad86 + rxn44809_c0 = 0
 BENZOATE_Periplasm: 0 rxn12357_c0 = 0
 cpd03115_c0: + rxn06777_c0_reverse_50cd7 - rxn06777_c0
 + rxn03241_c0_reverse_44fc5 - rxn03241_c0 = 0
 cpd00295_c0: - rxn05233_c0_reverse_e7700 + rxn05233_c0
 - rxn01509_c0_reverse_c18be + rxn01509_c0 + rxn01353_c0_reverse_ca66e
 - rxn01353_c0 = 0
 cpd02820_c0: - rxn02285_c0_reverse_5c70a + rxn02285_c0
 - rxn00461_c0_reverse_73c3f + rxn00461_c0 = 0
 cpd00557_c0: + 0.08 rxn12496_c0_reverse_ff0a4 - 0.08 rxn12496_c0
 + rxn02056_c0_reverse_cdee7 - rxn02056_c0 = 0
 cpd01335_c0: - rxn09444_c0_reverse_6bd76 + rxn09444_c0
 + rxn02679_c0_reverse_bdea5 - rxn02679_c0 + rxn08447_c0_reverse_8d4c6
 - rxn08447_c0 + rxn02680_c0_reverse_2a6a3 - rxn02680_c0 = 0
 cpd14940_c0: - rxn07578_c0_reverse_77323 + rxn07578_c0
 + rxn12322_c0_reverse_abd61 - rxn12322_c0 = 0
 cpd16647_c0: - rxn12290_c0_reverse_ddf36 + rxn12290_c0
 + rxn12291_c0_reverse_34bce - rxn12291_c0 = 0
 cpd00858_c0: + rxn02373_c0_reverse_5567a - rxn02373_c0
 + rxn02374_c0_reverse_681e0 - rxn02374_c0 = 0
 cpd02566_c0: + rxn01094_c0_reverse_846cb - rxn01094_c0
 - rxn02177_c0_reverse_3e2ec + rxn02177_c0 = 0
 cpd00051_c0: + rxn00601_c0_reverse_07197 - rxn00601_c0
 + rxn08155_c0_reverse_89609 - rxn08155_c0 + rxn41927_c0_reverse_ced6b
 - rxn41927_c0 - rxn12437_c0_reverse_59aa2 + rxn12437_c0
 - rxn00802_c0_reverse_5f20a + rxn00802_c0 = 0
 cpd00142_e0:
 + EXF_DASH_3_DASH_KETOBUTYRATE_LBRACKET_Extraorganism_RBRACKET__reverse_ec77e
 - EXF_DASH_3_DASH_KETOBUTYRATE_LBRACKET_Extraorganism_RBRACKET_
 + rxn08030_c0_reverse_9d635 - rxn08030_c0 = 0
 cpd00177_c0: - rxn01127_c0_reverse_b0168 + rxn01127_c0
 + rxn00839_c0_reverse_e1122 - rxn00839_c0 - rxn05231_c0_reverse_2f4e0
 + rxn05231_c0 = 0
 cpd00021_e0:
 + EXF_DASH_FE_PLUS_2_LBRACKET_Extraorganism_RBRACKET__reverse_e162a
 - EXF_DASH_FE_PLUS_2_LBRACKET_Extraorganism_RBRACKET_
 + rxn12504_c0_reverse_8dd4d - rxn12504_c0 + rxn12420_c0_reverse_326bd
 - rxn12420_c0 = 0
 cpd00047_c0: - rxn00300_c0_reverse_7e153 + rxn00300_c0
 - 2 rxn20643_c0_reverse_33af7 + 2 rxn20643_c0
 - rxn12422_c0_reverse_3885e + rxn12422_c0 - rxn00299_c0_reverse_d20b3
 + rxn00299_c0 + rxn08525_c0_reverse_2469b - rxn08525_c0
 - rxn00691_c0_reverse_a2583 + rxn00691_c0 - rxn05040_c0_reverse_58dbe
 + rxn05040_c0 + rxn04783_c0_reverse_9d63f - rxn04783_c0 = 0
 cpd27116_c0: - 0.2 rxn12192_c0_reverse_10826 + 0.2 rxn12192_c0
 + rxn46689_c0_reverse_10181 - rxn46689_c0 = 0
 cpd00003_c0: - rxn00589_c0_reverse_9e00a + rxn00589_c0
 + rxn03970_c0_reverse_3d5bd - rxn03970_c0 + rxn01101_c0_reverse_5c292
 - rxn01101_c0 + rxn02774_c0_reverse_0d621 - rxn02774_c0
 + rxn03969_c0_reverse_a1720 - rxn03969_c0 + rxn00504_c0_reverse_5bbb1
 - rxn00504_c0 - NADH_DASH_DEHYDROGENASE_DASH_RXN_reverse_eb679
 + NADH_DASH_DEHYDROGENASE_DASH_RXN - rxn12215_c0_reverse_68c5f
 + rxn12215_c0 + rxn01522_c0_reverse_e9b47 - rxn01522_c0
 + rxn01297_c0_reverse_c2a85 - rxn01297_c0 - rxn03897_c0_reverse_ad3b1
 + rxn03897_c0 - rxn12316_c0_reverse_1fded + rxn12316_c0
 + 2 rxn00211_c0_reverse_3e4c5 - 2 rxn00211_c0
 + rxn08094_c0_reverse_a5cfe - rxn08094_c0 + rxn12277_c0_reverse_25bb7
 - rxn12277_c0 + rxn00154_c0_reverse_67f30 - rxn00154_c0
 - rxn12309_c0_reverse_1042b + rxn12309_c0 - rxn09295_c0_reverse_354db
 + rxn09295_c0 + rxn03249_c0_reverse_5259d - rxn03249_c0
 + rxn12239_c0_reverse_a1aee - rxn12239_c0 + rxn03246_c0_reverse_93213
 - rxn03246_c0 - rxn08975_c0_reverse_12267 + rxn08975_c0
 + rxn01480_c0_reverse_f37c4 - rxn01480_c0 - rxn12355_c0_reverse_ab404
 + rxn12355_c0 + rxn03974_c0_reverse_bfeb1 - rxn03974_c0
 + rxn01331_c0_reverse_39a94 - rxn01331_c0 + rxn12290_c0_reverse_ddf36
 - rxn12290_c0 + rxn01685_c0_reverse_01df7 - rxn01685_c0
 + rxn12279_c0_reverse_d5b2d - rxn12279_c0
 + 0.07 rxn12496_c0_reverse_ff0a4 - 0.07 rxn12496_c0
 + rxn01293_c0_reverse_91d3a - rxn01293_c0 + rxn01451_c0_reverse_007d5
 - rxn01451_c0 - rxn12322_c0_reverse_abd61 + rxn12322_c0
 + rxn03422_c0_reverse_84b00 - rxn03422_c0 + rxn12251_c0_reverse_0649a
 - rxn12251_c0 - rxn03586_c0_reverse_bec9c + rxn03586_c0
 + rxn05326_c0_reverse_7e919 - rxn05326_c0 + rxn01032_c0_reverse_bad7b
 - rxn01032_c0 + rxn04750_c0_reverse_2a2a6 - rxn04750_c0
 + rxn05328_c0_reverse_20c79 - rxn05328_c0 + rxn00171_c0_reverse_94974
 - rxn00171_c0 + rxn00671_c0_reverse_51323 - rxn00671_c0
 + rxn01286_c0_reverse_9270e - rxn01286_c0 + rxn00781_c0_reverse_762ea
 - rxn00781_c0 + rxn12273_c0_reverse_94bf0 - rxn12273_c0
 + rxn12242_c0_reverse_4d875 - rxn12242_c0 + rxn03239_c0_reverse_e8516
 - rxn03239_c0 + rxn03242_c0_reverse_47203 - rxn03242_c0
 + rxn05735_c0_reverse_f8529 - rxn05735_c0 + rxn01094_c0_reverse_846cb
 - rxn01094_c0 + rxn00863_c0_reverse_45538 - rxn00863_c0
 + rxn03062_c0_reverse_a5bc7 - rxn03062_c0 + rxn00543_c0_reverse_df82d
 - rxn00543_c0 + rxn00584_c0_reverse_9c4c5 - rxn00584_c0
 + rxn00248_c0_reverse_0818d - rxn00248_c0 + rxn05325_c0_reverse_f2da0
 - rxn05325_c0 + rxn12234_c0_reverse_f0c78 - rxn12234_c0
 + 2 rxn00638_c0_reverse_998e3 - 2 rxn00638_c0
 - rxn00105_c0_reverse_b71d3 + rxn00105_c0 - rxn04113_c0_reverse_d915b
 + rxn04113_c0 - rxn12311_c0_reverse_8c971 + rxn12311_c0
 + rxn03617_c0_reverse_69746 - rxn03617_c0 + rxn02939_c0_reverse_b8d87
 - rxn02939_c0 - rxn12233_c0_reverse_9273a + rxn12233_c0
 - rxn12324_c0_reverse_29839 + rxn12324_c0 + rxn06777_c0_reverse_50cd7
 - rxn06777_c0 + rxn02159_c0_reverse_80539 - rxn02159_c0
 + rxn04996_c0_reverse_f7c7e - rxn04996_c0 + rxn12284_c0_reverse_53ba1
 - rxn12284_c0 + rxn05327_c0_reverse_9892a - rxn05327_c0
 + rxn01867_c0_reverse_ea907 - rxn01867_c0 + rxn12268_c0_reverse_b532f
 - rxn12268_c0 + rxn01268_c0_reverse_76fc3 - rxn01268_c0
 + rxn02107_c0_reverse_9028d - rxn02107_c0 + rxn00834_c0_reverse_0227f
 - rxn00834_c0 + rxn00159_c0_reverse_35110 - rxn00159_c0
 + 3 rxn00568_c0_reverse_a1c6b - 3 rxn00568_c0
 + rxn12256_c0_reverse_81239 - rxn12256_c0 + rxn01011_c0_reverse_0f4e2
 - rxn01011_c0 + rxn04954_c0_reverse_87911 - rxn04954_c0
 + rxn12223_c0_reverse_3a1d9 - rxn12223_c0 + rxn12259_c0_reverse_66abf
 - rxn12259_c0 + rxn00500_c0_reverse_abe43 - rxn00500_c0
 + rxn09953_c0_reverse_f5bd1 - rxn09953_c0 + rxn00077_c0_reverse_deb34
 - rxn00077_c0 + rxn00979_c0_reverse_e9063 - rxn00979_c0
 + rxn00083_c0_reverse_7aa1e - rxn00083_c0 + rxn00992_c0_reverse_347e6
 - rxn00992_c0 + rxn00525_c0_reverse_dab5c - rxn00525_c0
 + rxn12298_c0_reverse_6acb7 - rxn12298_c0 + rxn03244_c0_reverse_83dcb
 - rxn03244_c0 + rxn02112_c0_reverse_c4928 - rxn02112_c0
 + rxn00957_c0_reverse_b25dd - rxn00957_c0 + rxn05322_c0_reverse_fab80
 - rxn05322_c0 + rxn05324_c0_reverse_b041c - rxn05324_c0
 - rxn00190_c0_reverse_12593 + rxn00190_c0 + rxn01781_c0_reverse_14eaa
 - rxn01781_c0 + rxn02066_c0_reverse_5e5fe - rxn02066_c0
 - rxn12353_c0_reverse_b4bf0 + rxn12353_c0 = 0
 cpd01630_e0: + rxn12434_c0_reverse_094a5 - rxn12434_c0
 + EXF_DASH_CIS_DASH_CIS_DASH_MUCONATE_LBRACKET_Extraorganism_RBRACKET__reverse_f9a37
 - EXF_DASH_CIS_DASH_CIS_DASH_MUCONATE_LBRACKET_Extraorganism_RBRACKET_
 = 0
 cpd00522_c0: - rxn02000_c0_reverse_38fff + rxn02000_c0
 - rxn02003_c0_reverse_8665b + rxn02003_c0 = 0
 cpd00712_c0: - rxn00912_c0_reverse_23517 + rxn00912_c0
 - rxn01790_c0_reverse_d68bb + rxn01790_c0 = 0
 cpd00322_c0: + rxn48235_c0_reverse_cb3b8 - rxn48235_c0
 + rxn01575_c0_reverse_06d3d - rxn01575_c0 = 0
 cpd00100_c0: + rxn00615_c0_reverse_413b8 - rxn00615_c0
 + rxn05581_c0_reverse_26e3b - rxn05581_c0 - rxn19256_c0_reverse_fc363
 + rxn19256_c0 = 0
 cpd09844_c0: + rxn04750_c0_reverse_2a2a6 - rxn04750_c0
 - rxn23789_c0_reverse_d9f36 + rxn23789_c0 = 0
 cpd00477_c0: + rxn01917_c0_reverse_8a0d8 - rxn01917_c0
 - rxn01636_c0_reverse_84dff + rxn01636_c0 - rxn00192_c0_reverse_18e72
 + rxn00192_c0 = 0
 cpd00266_e0:
 + EXF_DASH_CARNITINE_LBRACKET_Extraorganism_RBRACKET__reverse_145a9
 - EXF_DASH_CARNITINE_LBRACKET_Extraorganism_RBRACKET_
 + rxn12364_c0_reverse_1c0bf - rxn12364_c0 = 0
 cpd02666_c0: + rxn02341_c0_reverse_1a6f7 - rxn02341_c0
 - rxn09177_c0_reverse_ef483 + rxn09177_c0 = 0
 cpd02060_c0: - rxn02911_c0_reverse_25737 + rxn02911_c0
 - rxn02720_c0_reverse_8aa9d + rxn02720_c0 - rxn02869_c0_reverse_701c7
 + rxn02869_c0 = 0
 cpd02147_c0: - rxn01331_c0_reverse_39a94 + rxn01331_c0
 + rxn02939_c0_reverse_b8d87 - rxn02939_c0 = 0
 cpd03642_e0: + rxn12382_c0_reverse_485cf - rxn12382_c0
 + EXF_DASH_ADIPATE_LBRACKET_Extraorganism_RBRACKET__reverse_ce796
 - EXF_DASH_ADIPATE_LBRACKET_Extraorganism_RBRACKET_ = 0
 cpd12335_c0: + 0.02 rxn12192_c0_reverse_10826 - 0.02 rxn12192_c0
 - rxn47831_c0_reverse_68e43 + rxn47831_c0 = 0
 cpd00039_c0: - rxn00313_c0_reverse_f15f4 + rxn00313_c0
 + rxn08856_c0_reverse_96103 - rxn08856_c0 - rxn08854_c0_reverse_00a2b
 + rxn08854_c0 + rxn06442_c0_reverse_c8767 - rxn06442_c0 = 0
 cpd16661_e0: + 0.028 GROWTH_DASH_RXN_reverse_6bca6
 - 0.028 GROWTH_DASH_RXN - 0.9208 rxn12306_c0_reverse_01ca5
 + 0.9208 rxn12306_c0 = 0
 cpd00242_c0: + rxn00533_c0_reverse_dfaec - rxn00533_c0
 + rxn00102_c0_reverse_7b86e - rxn00102_c0 + rxn00414_c0_reverse_bab8c
 - rxn00414_c0 = 0
 cpd00782_c0: + rxn02297_c0_reverse_96fea - rxn02297_c0
 + rxn12249_c0_reverse_80b67 - rxn12249_c0 - rxn02296_c0_reverse_115eb
 + rxn02296_c0 = 0
 cpd03122_c0: + rxn03250_c0_reverse_5161e - rxn03250_c0
 + rxn03249_c0_reverse_5259d - rxn03249_c0 = 0
 cpd00532_c0: + 2 rxn00206_c0_reverse_a3678 - 2 rxn00206_c0 = 0
 cpd02394_c0: + rxn03004_c0_reverse_1e556 - rxn03004_c0
 - rxn02895_c0_reverse_ccce2 + rxn02895_c0 + rxn04783_c0_reverse_9d63f
 - rxn04783_c0 = 0
 TOLUENE_Cytosol: - TRANS_DASH_RXNIM_DASH_5895_reverse_e3ee2
 + TRANS_DASH_RXNIM_DASH_5895 = 0
 cpd00016_c0: + 0.08 rxn12496_c0_reverse_ff0a4 - 0.08 rxn12496_c0
 - rxn00208_c0_reverse_fda2f + rxn00208_c0 - rxn00209_c0_reverse_5689c
 + rxn00209_c0 = 0
 cpd00330_c0: - rxn01520_c0_reverse_80f6b + rxn01520_c0
 - rxn00686_c0_reverse_06367 + rxn00686_c0 - rxn01603_c0_reverse_0e247
 + rxn01603_c0 = 0
 cpd00881_e0: - rxn02149_c0_reverse_b28f8 + rxn02149_c0
 + EXF_DASH_CAFFEATE_LBRACKET_Extraorganism_RBRACKET__reverse_2c84f
 - EXF_DASH_CAFFEATE_LBRACKET_Extraorganism_RBRACKET_
 + rxn12397_c0_reverse_25fe7 - rxn12397_c0 = 0
 cpd00699_e0: - rxn01364_c0_reverse_c94af + rxn01364_c0 = 0
 cpd03447_c0: - rxn09042_c0_reverse_0d1fb + rxn09042_c0
 + rxn03397_c0_reverse_7d0f6 - rxn03397_c0 = 0
 cpd00211_e0: + rxn08184_c0_reverse_47d0f - rxn08184_c0
 + EXF_DASH_BUTYRIC_ACID_LBRACKET_Extraorganism_RBRACKET__reverse_d2a14
 - EXF_DASH_BUTYRIC_ACID_LBRACKET_Extraorganism_RBRACKET_ = 0
 cpd00207_c0: - RXN0_DASH_366_reverse_21134 + RXN0_DASH_366
 - rxn00915_c0_reverse_c94c3 + rxn00915_c0 + rxn01225_c0_reverse_52863
 - rxn01225_c0 = 0
 cpd00338_c0: + 2 rxn00029_c0_reverse_860e3 - 2 rxn00029_c0
 + rxn01629_c0_reverse_6daca - rxn01629_c0 = 0
 cpd00843_c0: - rxn01015_c0_reverse_329e1 + rxn01015_c0 = 0
 cpd00132_e0: + rxn05220_c0_reverse_cb064 - rxn05220_c0
 + EXF_DASH_ASN_LBRACKET_Extraorganism_RBRACKET__reverse_bf593
 - EXF_DASH_ASN_LBRACKET_Extraorganism_RBRACKET_ = 0
 cpd00248_e0: + rxn01364_c0_reverse_c94af - rxn01364_c0
 - rxn02149_c0_reverse_b28f8 + rxn02149_c0
 + EXF_DASH_QUINATE_LBRACKET_Extraorganism_RBRACKET__reverse_f8b29
 - EXF_DASH_QUINATE_LBRACKET_Extraorganism_RBRACKET_ = 0
 cpd00066_e0:
 + EXF_DASH_PHE_LBRACKET_Extraorganism_RBRACKET__reverse_2073b
 - EXF_DASH_PHE_LBRACKET_Extraorganism_RBRACKET_
 + rxn12449_c0_reverse_f714a - rxn12449_c0 = 0
 cpd09842_c0: - rxn04753_c0_reverse_d3920 + rxn04753_c0
 + rxn04752_c0_reverse_3bf35 - rxn04752_c0 - rxn12260_c0_reverse_b895f
 + rxn12260_c0 = 0
 cpd16630_c0: - rxn12325_c0_reverse_d615b + rxn12325_c0
 + rxn12324_c0_reverse_29839 - rxn12324_c0 = 0
 NA_PLUS__Cytosol: - rxn05221_c0_reverse_7f2fc + rxn05221_c0
 - rxn05215_c0_reverse_6ef11 + rxn05215_c0 - rxn05298_c0_reverse_0b121
 + rxn05298_c0 - rxn12432_c0_reverse_40ed2 + rxn12432_c0
 - rxn12448_c0_reverse_c3be1 + rxn12448_c0 = 0
 HOMO_DASH_SER_Extraorganism: - rxn12372_c0_reverse_14f01 + rxn12372_c0
 + EXF_DASH_HOMO_DASH_SER_LBRACKET_Extraorganism_RBRACKET__reverse_ee253
 - EXF_DASH_HOMO_DASH_SER_LBRACKET_Extraorganism_RBRACKET_ = 0
 cpd00361_c0: + rxn01685_c0_reverse_01df7 - rxn01685_c0
 + rxn09953_c0_reverse_f5bd1 - rxn09953_c0 - rxn02112_c0_reverse_c4928
 + rxn02112_c0 = 0
 cpd16651_c0: - rxn12259_c0_reverse_66abf + rxn12259_c0
 + rxn12260_c0_reverse_b895f - rxn12260_c0 = 0
 cpd00010_c0: - rxn00670_c0_reverse_b91ec + rxn00670_c0
 + rxn12257_c0_reverse_ff5eb - rxn12257_c0 + rxn01571_c0_reverse_2e910
 - rxn01571_c0 + rxn04753_c0_reverse_d3920 - rxn04753_c0
 + rxn08094_c0_reverse_a5cfe - rxn08094_c0 - rxn00943_c0_reverse_a6b46
 + rxn00943_c0 + rxn05736_c0_reverse_9104b - rxn05736_c0
 + rxn00154_c0_reverse_67f30 - rxn00154_c0 - rxn01303_c0_reverse_5cb95
 + rxn01303_c0 + rxn01427_c0_reverse_2284d - rxn01427_c0
 - rxn00423_c0_reverse_ebe14 + rxn00423_c0 - rxn08440_c0_reverse_26b9d
 + rxn08440_c0 + rxn12254_c0_reverse_ac3c1 - rxn12254_c0
 + rxn12227_c0_reverse_f6816 - rxn12227_c0 - rxn00601_c0_reverse_07197
 + rxn00601_c0 - rxn12359_c0_reverse_289a6 + rxn12359_c0
 + rxn12274_c0_reverse_2c064 - rxn12274_c0 + rxn00175_c0_reverse_c6ef7
 - rxn00175_c0 - rxn08446_c0_reverse_2e5b5 + rxn08446_c0
 + 0.08 rxn12496_c0_reverse_ff0a4 - 0.08 rxn12496_c0
 + rxn00330_c0_reverse_9c12f - rxn00330_c0 - rxn12352_c0_reverse_d2021
 + rxn12352_c0 + rxn12282_c0_reverse_ba0b6 - rxn12282_c0
 + rxn00679_c0_reverse_243e0 - rxn00679_c0 + rxn12252_c0_reverse_f2ba3
 - rxn12252_c0 + rxn12292_c0_reverse_021f3 - rxn12292_c0
 + rxn12271_c0_reverse_7660f - rxn12271_c0 + rxn00171_c0_reverse_94974
 - rxn00171_c0 + rxn00671_c0_reverse_51323 - rxn00671_c0
 + rxn09444_c0_reverse_6bd76 - rxn09444_c0 + rxn08767_c0_reverse_fed36
 - rxn08767_c0 - rxn08441_c0_reverse_2611c + rxn08441_c0
 - rxn00173_c0_reverse_21844 + rxn00173_c0 + rxn12276_c0_reverse_4b77d
 - rxn12276_c0 + rxn09452_c0_reverse_d1ec4 - rxn09452_c0
 + rxn00902_c0_reverse_e672c - rxn00902_c0 + rxn03866_c0_reverse_9131f
 - rxn03866_c0 + rxn12287_c0_reverse_c5869 - rxn12287_c0
 + rxn12291_c0_reverse_34bce - rxn12291_c0 - rxn08447_c0_reverse_8d4c6
 + rxn08447_c0 + rxn09453_c0_reverse_59a33 - rxn09453_c0
 - rxn03248_c0_reverse_63873 + rxn03248_c0 - rxn02680_c0_reverse_2a6a3
 + rxn02680_c0 + rxn12269_c0_reverse_aa973 - rxn12269_c0
 - rxn08444_c0_reverse_f6c59 + rxn08444_c0 - rxn05465_c0_reverse_93e79
 + rxn05465_c0 + rxn00285_c0_reverse_5970f - rxn00285_c0
 - rxn12329_c0_reverse_80a40 + rxn12329_c0 + rxn09449_c0_reverse_0b61b
 - rxn09449_c0 + rxn00256_c0_reverse_b1561 - rxn00256_c0
 + rxn00674_c0_reverse_a763e - rxn00674_c0 - rxn03638_c0_reverse_63c0e
 + rxn03638_c0 + rxn12263_c0_reverse_4d8db - rxn12263_c0
 - rxn12321_c0_reverse_19324 + rxn12321_c0 - rxn00676_c0_reverse_97437
 + rxn00676_c0 - rxn00874_c0_reverse_bd4de + rxn00874_c0
 - rxn02297_c0_reverse_96fea + rxn02297_c0 - rxn12315_c0_reverse_4ad8f
 + rxn12315_c0 - rxn12354_c0_reverse_913b8 + rxn12354_c0
 - rxn03031_c0_reverse_c2742 + rxn03031_c0 - rxn03243_c0_reverse_6d279
 + rxn03243_c0 - rxn02804_c0_reverse_0454c + rxn02804_c0
 + rxn12262_c0_reverse_d52a0 - rxn12262_c0 + rxn09953_c0_reverse_f5bd1
 - rxn09953_c0 - rxn08439_c0_reverse_b2eb5 + rxn08439_c0
 - rxn00598_c0_reverse_faf9e + rxn00598_c0 - rxn12345_c0_reverse_1e310
 + rxn12345_c0 + rxn12260_c0_reverse_b895f - rxn12260_c0
 - rxn00192_c0_reverse_18e72 + rxn00192_c0 + rxn12288_c0_reverse_8e47c
 - rxn12288_c0 - rxn00178_c0_reverse_ffe8c + rxn00178_c0
 + rxn02296_c0_reverse_115eb - rxn02296_c0 - rxn06510_c0_reverse_b57fe
 + rxn06510_c0 + rxn01182_c0_reverse_aefb6 - rxn01182_c0
 - rxn12356_c0_reverse_073a5 + rxn12356_c0 + rxn12280_c0_reverse_423fc
 - rxn12280_c0 - rxn00100_c0_reverse_97085 + rxn00100_c0
 + rxn00947_c0_reverse_e410e - rxn00947_c0 = 0
 cpd00405_c0: - rxn12352_c0_reverse_d2021 + rxn12352_c0
 - rxn01781_c0_reverse_14eaa + rxn01781_c0 = 0
 cpd00307_c0: - rxn26065_c0_reverse_d1734 + rxn26065_c0
 - rxn12428_c0_reverse_d9987 + rxn12428_c0 + rxn00717_c0_reverse_0af42
 - rxn00717_c0 = 0
 cpd16633_c0: - rxn12278_c0_reverse_13f19 + rxn12278_c0
 + rxn12279_c0_reverse_d5b2d - rxn12279_c0 = 0
 cpd03584_c0: - rxn06723_c0_reverse_18b5b + rxn06723_c0
 - rxn03146_c0_reverse_5fcc1 + rxn03146_c0 = 0
 cpd16657_e0: + rxn12409_c0_reverse_a865e - rxn12409_c0
 + EXF_DASH_CPDIM_DASH_6112_LBRACKET_Extraorganism_RBRACKET__reverse_73d87
 - EXF_DASH_CPDIM_DASH_6112_LBRACKET_Extraorganism_RBRACKET_ = 0
 cpd00774_c0: + rxn02288_c0_reverse_dc892 - rxn02288_c0
 + rxn05005_c0_reverse_b93fa - rxn05005_c0 - rxn02264_c0_reverse_b57e2
 + rxn02264_c0 = 0
 cpd00918_c0: + rxn02465_c0_reverse_3e5e6 - rxn02465_c0
 - rxn01637_c0_reverse_b3a28 + rxn01637_c0 = 0
 cpd03119_c0: - rxn02680_c0_reverse_2a6a3 + rxn02680_c0
 - rxn03244_c0_reverse_83dcb + rxn03244_c0 = 0
 cpd00655_c0: - rxn02175_c0_reverse_f2029 + rxn02175_c0
 + rxn00100_c0_reverse_97085 - rxn00100_c0 = 0
 cpd00239_c0: + rxn00649_c0_reverse_37aab - rxn00649_c0
 + rxn00623_c0_reverse_f1142 - rxn00623_c0 - rxn01365_c0_reverse_de8be
 + rxn01365_c0 + rxn00952_c0_reverse_3ef6d - rxn00952_c0 = 0
 cpd00028_c0: + rxn05120_c0_reverse_6f116 - rxn05120_c0
 + 0.08 rxn12496_c0_reverse_ff0a4 - 0.08 rxn12496_c0
 - rxn00224_c0_reverse_d0f78 + rxn00224_c0 = 0
 cpd05192_e0:
 + EXF_DASH_CPD_DASH_3623_LBRACKET_Extraorganism_RBRACKET__reverse_ea3ad
 - EXF_DASH_CPD_DASH_3623_LBRACKET_Extraorganism_RBRACKET_
 + rxn12406_c0_reverse_53f28 - rxn12406_c0 = 0
 cpd12100_c0: + 0.2 rxn12192_c0_reverse_10826 - 0.2 rxn12192_c0
 - rxn46689_c0_reverse_10181 + rxn46689_c0 = 0
 cpd00485_c0: + rxn00640_c0_reverse_e6d45 - rxn00640_c0
 - rxn01329_c0_reverse_bcc3d + rxn01329_c0 = 0
 cpd12256_c0: + 0.05 rxn12192_c0_reverse_10826 - 0.05 rxn12192_c0
 - rxn48235_c0_reverse_cb3b8 + rxn48235_c0 = 0
 cpd00035_c0: + rxn00191_c0_reverse_beaba - rxn00191_c0
 - rxn05215_c0_reverse_6ef11 + rxn05215_c0 + rxn48506_c0_reverse_07d35
 - rxn48506_c0 - rxn09310_c0_reverse_1afad + rxn09310_c0
 + rxn00283_c0_reverse_7dba3 - rxn00283_c0 + rxn02286_c0_reverse_e7172
 - rxn02286_c0 + rxn02297_c0_reverse_96fea - rxn02297_c0
 - rxn17731_c0_reverse_a1749 + rxn17731_c0 = 0
 cpd02720_c0: + rxn02474_c0_reverse_881e6 - rxn02474_c0
 + rxn05039_c0_reverse_b851c - rxn05039_c0 = 0
 cpd16626_c0: - rxn12354_c0_reverse_913b8 + rxn12354_c0
 + rxn12353_c0_reverse_b4bf0 - rxn12353_c0 = 0
 cpd03126_c0: - rxn03240_c0_reverse_29d03 + rxn03240_c0
 - rxn00946_c0_reverse_db319 + rxn00946_c0 = 0
 CHLOROGENATE_Periplasm: 0 rxn12357_c0 = 0
 cpd00007_e0: + rxn05468_c0_reverse_64ab5 - rxn05468_c0
 + EXF_DASH_OXYGEN_DASH_MOLECULE_LBRACKET_Extraorganism_RBRACKET__reverse_015e9
 - EXF_DASH_OXYGEN_DASH_MOLECULE_LBRACKET_Extraorganism_RBRACKET_ = 0
 cpd12829_c0: - rxn06433_c0_reverse_b302b + rxn06433_c0
 - rxn06619_c0_reverse_9faa5 + rxn06619_c0 = 0
 cpd03585_c0: - rxn03182_c0_reverse_1fd52 + rxn03182_c0
 + rxn03439_c0_reverse_dd2d2 - rxn03439_c0 = 0
 cpd16648_e0: + rxn12394_c0_reverse_e3df9 - rxn12394_c0
 + EXF_DASH_C6_COLON_2_LPAREN_C2_COMMA_C4_RPAREN__LBRACKET_Extraorganism_RBRACKET__reverse_2bb3f
 - EXF_DASH_C6_COLON_2_LPAREN_C2_COMMA_C4_RPAREN__LBRACKET_Extraorganism_RBRACKET_
 = 0
 cpd02678_c0: - rxn03004_c0_reverse_1e556 + rxn03004_c0
 + rxn03084_c0_reverse_df786 - rxn03084_c0 - rxn04783_c0_reverse_9d63f
 + rxn04783_c0 = 0
 cpd00379_e0:
 + EXF_DASH_GLUTARATE_LBRACKET_Extraorganism_RBRACKET__reverse_e9616
 - EXF_DASH_GLUTARATE_LBRACKET_Extraorganism_RBRACKET_
 + rxn12425_c0_reverse_e5b69 - rxn12425_c0 = 0
 cpd02920_c0: - rxn02503_c0_reverse_a68fc + rxn02503_c0
 + rxn02201_c0_reverse_551c1 - rxn02201_c0 = 0
 cpd00971_e0: + rxn05221_c0_reverse_7f2fc - rxn05221_c0
 + rxn05215_c0_reverse_6ef11 - rxn05215_c0 + rxn05298_c0_reverse_0b121
 - rxn05298_c0 + rxn12432_c0_reverse_40ed2 - rxn12432_c0
 + EXF_DASH_NA_PLUS__LBRACKET_Extraorganism_RBRACKET__reverse_6a961
 - EXF_DASH_NA_PLUS__LBRACKET_Extraorganism_RBRACKET_
 + rxn12448_c0_reverse_c3be1 - rxn12448_c0 = 0
 cpd00755_c0: - rxn00060_c0_reverse_5ca93 + rxn00060_c0
 + rxn02264_c0_reverse_b57e2 - rxn02264_c0 = 0
 cpd00484_c0: - rxn12239_c0_reverse_a1aee + rxn12239_c0
 - rxn12248_c0_reverse_bd733 + rxn12248_c0 + rxn00957_c0_reverse_b25dd
 - rxn00957_c0 = 0
 cpd00018_c0: - rxn02503_c0_reverse_a68fc + rxn02503_c0
 - rxn06433_c0_reverse_b302b + rxn06433_c0 - rxn00770_c0_reverse_9f9ec
 + rxn00770_c0 - rxn01571_c0_reverse_2e910 + rxn01571_c0
 - rxn04753_c0_reverse_d3920 + rxn04753_c0 + rxn00132_c0_reverse_3a5d8
 - rxn00132_c0 - rxn05736_c0_reverse_9104b + rxn05736_c0
 - rxn01427_c0_reverse_2284d + rxn01427_c0 - rxn12254_c0_reverse_ac3c1
 + rxn12254_c0 - rxn12227_c0_reverse_f6816 + rxn12227_c0
 - rxn44292_c0_reverse_16d1f + rxn44292_c0 - rxn00175_c0_reverse_c6ef7
 + rxn00175_c0 - rxn00917_c0_reverse_35aaa + rxn00917_c0
 - rxn12282_c0_reverse_ba0b6 + rxn12282_c0 - rxn48235_c0_reverse_cb3b8
 + rxn48235_c0 - rxn43736_c0_reverse_eccd9 + rxn43736_c0
 - rxn12292_c0_reverse_021f3 + rxn12292_c0 - rxn47831_c0_reverse_68e43
 + rxn47831_c0 - rxn44809_c0_reverse_8ad86 + rxn44809_c0
 + rxn00139_c0_reverse_8174b - rxn00139_c0 - rxn12271_c0_reverse_7660f
 + rxn12271_c0 - rxn41935_c0_reverse_db2c5 + rxn41935_c0
 - rxn43380_c0_reverse_45ca6 + rxn43380_c0 - rxn01791_c0_reverse_2cc23
 + rxn01791_c0 - rxn05256_c0_reverse_351cd + rxn05256_c0
 - rxn09444_c0_reverse_6bd76 + rxn09444_c0 - rxn12276_c0_reverse_4b77d
 + rxn12276_c0 - rxn09452_c0_reverse_d1ec4 + rxn09452_c0
 - rxn48506_c0_reverse_07d35 + rxn48506_c0 - rxn44277_c0_reverse_f6ffe
 + rxn44277_c0 - rxn00800_c0_reverse_a2a4d + rxn00800_c0
 + rxn00097_c0_reverse_84522 - rxn00097_c0 - rxn47838_c0_reverse_a4405
 + rxn47838_c0 - rxn12287_c0_reverse_c5869 + rxn12287_c0
 - rxn06442_c0_reverse_c8767 + rxn06442_c0 - rxn41927_c0_reverse_ced6b
 + rxn41927_c0 - rxn09453_c0_reverse_59a33 + rxn09453_c0
 - rxn47732_c0_reverse_706b4 + rxn47732_c0 - rxn40608_c0_reverse_36c97
 + rxn40608_c0 - rxn09310_c0_reverse_1afad + rxn09310_c0
 - rxn46689_c0_reverse_10181 + rxn46689_c0 - rxn09449_c0_reverse_0b61b
 + rxn09449_c0 - rxn00674_c0_reverse_a763e + rxn00674_c0
 - rxn41196_c0_reverse_2ab9c + rxn41196_c0 - rxn12263_c0_reverse_4d8db
 + rxn12263_c0 - rxn41902_c0_reverse_1375a + rxn41902_c0
 - rxn12262_c0_reverse_d52a0 + rxn12262_c0 - rxn00063_c0_reverse_f75e0
 + rxn00063_c0 - rxn46484_c0_reverse_80bc7 + rxn46484_c0
 - rxn00147_c0_reverse_87430 + rxn00147_c0 - rxn12288_c0_reverse_8e47c
 + rxn12288_c0 - rxn02296_c0_reverse_115eb + rxn02296_c0
 - rxn06443_c0_reverse_a6b8a + rxn06443_c0 - rxn01434_c0_reverse_c28bc
 + rxn01434_c0 - rxn00190_c0_reverse_12593 + rxn00190_c0
 - rxn01182_c0_reverse_aefb6 + rxn01182_c0 - rxn00947_c0_reverse_e410e
 + rxn00947_c0 = 0
 cpd00238_c0: + rxn01333_c0_reverse_15140 - rxn01333_c0
 + rxn01200_c0_reverse_327cb - rxn01200_c0 = 0
 cpd00247_c0: - rxn01362_c0_reverse_415bb + rxn01362_c0
 - rxn01360_c0_reverse_4b9bd + rxn01360_c0 = 0
 cpd02557_c0: - rxn03891_c0_reverse_b37bf + rxn03891_c0
 + rxn03893_c0_reverse_f6334 - rxn03893_c0 = 0
 cpd03587_c0: + rxn12305_c0_reverse_13a69 - rxn12305_c0
 - rxn12332_c0_reverse_3da81 + rxn12332_c0 = 0
 cpd00613_c0: + 0.052 rxn12350_c0_reverse_31a51 - 0.052 rxn12350_c0
 + rxn01781_c0_reverse_14eaa - rxn01781_c0 = 0
 cpd16598_c0: - rxn12343_c0_reverse_049b6 + rxn12343_c0
 + rxn12345_c0_reverse_1e310 - rxn12345_c0 = 0
 cpd02255_c0: + rxn02144_c0_reverse_2881f - rxn02144_c0
 - rxn02483_c0_reverse_c2902 + rxn02483_c0 - rxn02971_c0_reverse_bda0c
 + rxn02971_c0 = 0
 cpd26694_c0: + 0.04 rxn12192_c0_reverse_10826 - 0.04 rxn12192_c0
 - rxn47732_c0_reverse_706b4 + rxn47732_c0 - rxn19846_c0_reverse_1ddb1
 + rxn19846_c0 = 0
 cpd00938_c0: + rxn02369_c0_reverse_90ecc - rxn02369_c0
 + rxn02483_c0_reverse_c2902 - rxn02483_c0 = 0
 cpd03279_c0: - rxn01858_c0_reverse_04502 + rxn01858_c0
 - rxn12417_c0_reverse_de9ac + rxn12417_c0 = 0
 cpd16658_e0: + rxn12411_c0_reverse_bbf81 - rxn12411_c0
 + EXF_DASH_CPDIM_DASH_6115_LBRACKET_Extraorganism_RBRACKET__reverse_1a652
 - EXF_DASH_CPDIM_DASH_6115_LBRACKET_Extraorganism_RBRACKET_ = 0
 cpd00210_e0:
 + EXF_DASH_TAURINE_LBRACKET_Extraorganism_RBRACKET__reverse_7343a
 - EXF_DASH_TAURINE_LBRACKET_Extraorganism_RBRACKET_
 + rxn05172_c0_reverse_adef7 - rxn05172_c0 = 0
 cpd00192_c0: - rxn01182_c0_reverse_aefb6 + rxn01182_c0
 + rxn12247_c0_reverse_78639 - rxn12247_c0 = 0
 cpd11310_c0: - rxn05114_c0_reverse_34e1e + rxn05114_c0
 + rxn05115_c0_reverse_952d3 - rxn05115_c0 = 0
 cpd01844_c0: - rxn00670_c0_reverse_b91ec + rxn00670_c0
 - rxn00985_c0_reverse_5537f + rxn00985_c0 = 0
 cpd00065_c0: - rxn01964_c0_reverse_9ec1a + rxn01964_c0
 - rxn12458_c0_reverse_16d51 + rxn12458_c0 + rxn46484_c0_reverse_80bc7
 - rxn46484_c0 = 0
 cpd12689_c0: - rxn06777_c0_reverse_50cd7 + rxn06777_c0
 - rxn06510_c0_reverse_b57fe + rxn06510_c0 = 0
 cpd11492_c0: + rxn05346_c0_reverse_53599 - rxn05346_c0
 + rxn12314_c0_reverse_d6204 - rxn12314_c0 + rxn05345_c0_reverse_d76ed
 - rxn05345_c0 + rxn12327_c0_reverse_860a9 - rxn12327_c0
 + rxn12319_c0_reverse_37c95 - rxn12319_c0 + rxn05348_c0_reverse_b4227
 - rxn05348_c0 - rxn05465_c0_reverse_93e79 + rxn05465_c0
 + rxn05347_c0_reverse_39a4c - rxn05347_c0 + rxn05344_c0_reverse_57982
 - rxn05344_c0 + rxn05460_c0_reverse_8c2ca - rxn05460_c0
 + rxn05343_c0_reverse_aba9f - rxn05343_c0 + rxn08861_c0_reverse_14032
 - rxn08861_c0 + rxn05350_c0_reverse_79ec3 - rxn05350_c0 = 0
 cpd00689_c0: - rxn00029_c0_reverse_860e3 + rxn00029_c0
 + 4 rxn00060_c0_reverse_5ca93 - 4 rxn00060_c0 = 0
 cpd00287_c0: - rxn01480_c0_reverse_f37c4 + rxn01480_c0
 + rxn00671_c0_reverse_51323 - rxn00671_c0 = 0
 cpd02201_c0: - rxn12510_c0_reverse_e8662 + rxn12510_c0
 + rxn09177_c0_reverse_ef483 - rxn09177_c0 = 0
 cpd00493_c0: + rxn00208_c0_reverse_fda2f - rxn00208_c0 = 0
 GLYCEROL_Extraorganism:
 + EXF_DASH_GLYCEROL_LBRACKET_Extraorganism_RBRACKET__reverse_d16f6
 - EXF_DASH_GLYCEROL_LBRACKET_Extraorganism_RBRACKET_
 - rxn05581_c0_reverse_26e3b + rxn05581_c0 = 0
 cpd00435_c0: + rxn01293_c0_reverse_91d3a - rxn01293_c0
 - rxn12237_c0_reverse_4ea7c + rxn12237_c0 - rxn12384_c0_reverse_8d22d
 + rxn12384_c0 = 0
 cpd01646_c0: + rxn00902_c0_reverse_e672c - rxn00902_c0
 + rxn02789_c0_reverse_b334b - rxn02789_c0 = 0
 cpd00873_c0: + rxn02155_c0_reverse_fd760 - rxn02155_c0
 + rxn02402_c0_reverse_d4532 - rxn02402_c0 - rxn08981_c0_reverse_9dac7
 + rxn08981_c0 = 0
 cpd08286_c0: + rxn03958_c0_reverse_f6c22 - rxn03958_c0
 + rxn03907_c0_reverse_daf14 - rxn03907_c0 = 0
 cpd12336_c0: + 0.01 rxn12192_c0_reverse_10826 - 0.01 rxn12192_c0
 - rxn46484_c0_reverse_80bc7 + rxn46484_c0 = 0
 cpd00036_c0: - rxn00291_c0_reverse_dab3b + rxn00291_c0
 - rxn00509_c0_reverse_e58fa + rxn00509_c0 - rxn00336_c0_reverse_aa1a4
 + rxn00336_c0 - rxn00289_c0_reverse_589d3 + rxn00289_c0
 + rxn00285_c0_reverse_5970f - rxn00285_c0 - rxn01973_c0_reverse_613ad
 + rxn01973_c0 - rxn12455_c0_reverse_9f5d1 + rxn12455_c0
 - rxn02143_c0_reverse_9704c + rxn02143_c0 - rxn03630_c0_reverse_def42
 + rxn03630_c0 + rxn09272_c0_reverse_40d41 - rxn09272_c0 = 0
 cpd00299_c0: - rxn01519_c0_reverse_4bfd7 + rxn01519_c0
 + rxn01520_c0_reverse_80f6b - rxn01520_c0 + rxn01521_c0_reverse_faebb
 - rxn01521_c0 = 0
 cpd16642_c0: - rxn12284_c0_reverse_53ba1 + rxn12284_c0
 - rxn00676_c0_reverse_97437 + rxn00676_c0 = 0
 cpd00561_c0: + rxn03969_c0_reverse_a1720 - rxn03969_c0
 - rxn04025_c0_reverse_491d8 + rxn04025_c0 = 0
 cpd00448_c0: + rxn01286_c0_reverse_9270e - rxn01286_c0 = 0
 cpd00200_c0: - rxn03062_c0_reverse_a5bc7 + rxn03062_c0
 - rxn00806_c0_reverse_4d986 + rxn00806_c0 = 0
 cpd16621_c0: - rxn12318_c0_reverse_497ba + rxn12318_c0
 + rxn12317_c0_reverse_f375b - rxn12317_c0 = 0
 cpd11493_c0:
 - GLYCEROL_DASH_3_DASH_P_DASH_ACYLTRANSFER_DASH_PL_DASH_RXN_reverse_c99a7
 + GLYCEROL_DASH_3_DASH_P_DASH_ACYLTRANSFER_DASH_PL_DASH_RXN
 - rxn05346_c0_reverse_53599 + rxn05346_c0 - rxn12323_c0_reverse_5d45e
 + rxn12323_c0 - rxn12314_c0_reverse_d6204 + rxn12314_c0
 + rxn06723_c0_reverse_18b5b - rxn06723_c0 - rxn06729_c0_reverse_4b155
 + rxn06729_c0 - rxn05345_c0_reverse_d76ed + rxn05345_c0
 - rxn12327_c0_reverse_860a9 + rxn12327_c0 - x_1270 + x_1269
 - rxn12319_c0_reverse_37c95 + rxn12319_c0 - rxn12328_c0_reverse_4038d
 + rxn12328_c0 - rxn05348_c0_reverse_b4227 + rxn05348_c0
 - rxn06033_c0_reverse_b392c + rxn06033_c0 + rxn05465_c0_reverse_93e79
 - rxn05465_c0 - rxn05347_c0_reverse_39a4c + rxn05347_c0
 - GLYCEROL_DASH_3_DASH_P_DASH_ACYLTRANSFER_DASH_TAG_DASH_RXN_reverse_5caf4
 + GLYCEROL_DASH_3_DASH_P_DASH_ACYLTRANSFER_DASH_TAG_DASH_RXN
 - rxn05344_c0_reverse_57982 + rxn05344_c0 - rxn08434_c0_reverse_c9a51
 + rxn08434_c0 - rxn10204_c0_reverse_e1ced + rxn10204_c0
 - 2 rxn12332_c0_reverse_3da81 + 2 rxn12332_c0
 - rxn12320_c0_reverse_d53d3 + rxn12320_c0 - rxn05460_c0_reverse_8c2ca
 + rxn05460_c0 - rxn05343_c0_reverse_aba9f + rxn05343_c0
 - rxn05350_c0_reverse_79ec3 + rxn05350_c0 - rxn06556_c0_reverse_11a34
 + rxn06556_c0 = 0
 cpd00856_c0: - rxn02369_c0_reverse_90ecc + rxn02369_c0
 - rxn01192_c0_reverse_012f5 + rxn01192_c0 = 0
 cpd00367_e0:
 + EXF_DASH_CYTIDINE_LBRACKET_Extraorganism_RBRACKET__reverse_4604c
 - EXF_DASH_CYTIDINE_LBRACKET_Extraorganism_RBRACKET_
 + rxn12413_c0_reverse_eb58f - rxn12413_c0 = 0
 cpd00260_c0: + rxn00336_c0_reverse_aa1a4 - rxn00336_c0
 + rxn01388_c0_reverse_67d04 - rxn01388_c0 + rxn00199_c0_reverse_0d3eb
 - rxn00199_c0 = 0
 cpd00346_c0: + rxn01643_c0_reverse_7e2ea - rxn01643_c0
 + rxn04786_c0_reverse_63c31 - rxn04786_c0 - rxn01301_c0_reverse_0fe7f
 + rxn01301_c0 + rxn01644_c0_reverse_e93fc - rxn01644_c0 = 0
 cpd11474_c0: + rxn05348_c0_reverse_b4227 - rxn05348_c0
 + rxn05327_c0_reverse_9892a - rxn05327_c0 = 0
 cpd00523_c0: + rxn02004_c0_reverse_e631c - rxn02004_c0
 - rxn00605_c0_reverse_b010b + rxn00605_c0 = 0
 cpd00125_c0: + rxn01520_c0_reverse_80f6b - rxn01520_c0
 + rxn00912_c0_reverse_23517 - rxn00912_c0 - rxn04954_c0_reverse_87911
 + rxn04954_c0 + rxn00692_c0_reverse_2db83 - rxn00692_c0
 + rxn00907_c0_reverse_cad1b - rxn00907_c0 - rxn12217_c0_reverse_aabb4
 + rxn12217_c0 = 0
 cpd02333_c0: - rxn02402_c0_reverse_d4532 + rxn02402_c0
 + rxn02988_c0_reverse_371a0 - rxn02988_c0 = 0
 r_734:
 + C14_COLON_0_DASH_3HYDROXYACP_DASH_DEHYDRATASE_DASH_RXN_reverse_1be06
 - C14_COLON_0_DASH_3HYDROXYACP_DASH_DEHYDRATASE_DASH_RXN
 + 0.44 rxn12330_c0_reverse_001d7 - 0.44 rxn12330_c0
 + rxn05342_c0_reverse_cfe2f - rxn05342_c0 = 0
 cpd00036_e0:
 + EXF_DASH_SUC_LBRACKET_Extraorganism_RBRACKET__reverse_3c57a
 - EXF_DASH_SUC_LBRACKET_Extraorganism_RBRACKET_
 + rxn12455_c0_reverse_9f5d1 - rxn12455_c0 = 0
 cpd00199_c0: + rxn00509_c0_reverse_e58fa - rxn00509_c0
 - rxn01204_c0_reverse_2bd15 + rxn01204_c0 = 0
 cpd28230_c0: - rxn04752_c0_reverse_3bf35 + rxn04752_c0
 + rxn23789_c0_reverse_d9f36 - rxn23789_c0 = 0
 cpd16652_c0: + rxn12261_c0_reverse_cc8e1 - rxn12261_c0
 - rxn12252_c0_reverse_f2ba3 + rxn12252_c0 - rxn12262_c0_reverse_d52a0
 + rxn12262_c0 = 0
 cpd03443_c0: - rxn03893_c0_reverse_f6334 + rxn03893_c0
 + rxn03393_c0_reverse_f213f - rxn03393_c0 = 0
 cpd00654_e0:
 + EXF_DASH_DEOXYCYTIDINE_LBRACKET_Extraorganism_RBRACKET__reverse_f3b98
 - EXF_DASH_DEOXYCYTIDINE_LBRACKET_Extraorganism_RBRACKET_
 + rxn12415_c0_reverse_816be - rxn12415_c0 = 0
 cpd00650_c0: - rxn01802_c0_reverse_9e3ef + rxn01802_c0
 - rxn12291_c0_reverse_34bce + rxn12291_c0 - rxn00872_c0_reverse_5565a
 + rxn00872_c0 - rxn02167_c0_reverse_8528a + rxn02167_c0 = 0
 cpd00107_c0: + rxn44809_c0_reverse_8ad86 - rxn44809_c0
 + rxn00806_c0_reverse_4d986 - rxn00806_c0 = 0
 cpd00551_c0: - rxn01685_c0_reverse_01df7 + rxn01685_c0 = 0
 cpd22286_c0: - 0.04 rxn12192_c0_reverse_10826 + 0.04 rxn12192_c0
 + rxn47838_c0_reverse_a4405 - rxn47838_c0 = 0
 cpd03671_c0: + rxn01485_c0_reverse_92ff0 - rxn01485_c0
 + rxn03638_c0_reverse_63c0e - rxn03638_c0 = 0
 cpd00008_c0: - rxn00615_c0_reverse_413b8 + rxn00615_c0
 - rxn12510_c0_reverse_e8662 + rxn12510_c0 - rxn00117_c0_reverse_96cd0
 + rxn00117_c0 - rxn00438_c0_reverse_21406 + rxn00438_c0
 - rxn03108_c0_reverse_afd32 + rxn03108_c0 + rxn06619_c0_reverse_9faa5
 - rxn06619_c0 - 2 rxn00095_c0_reverse_81e8f + 2 rxn00095_c0
 - rxn01917_c0_reverse_8a0d8 + rxn01917_c0
 - 40 GROWTH_DASH_RXN_reverse_6bca6 + 40 GROWTH_DASH_RXN
 - rxn01739_c0_reverse_40beb + rxn01739_c0 - rxn01492_c0_reverse_94799
 + rxn01492_c0 - rxn01300_c0_reverse_a4dd2 + rxn01300_c0
 - rxn02008_c0_reverse_3b950 + rxn02008_c0
 - 4.2 rxn12192_c0_reverse_10826 + 4.2 rxn12192_c0
 - rxn01219_c0_reverse_8a3a4 + rxn01219_c0 - rxn05219_c0_reverse_e0806
 + rxn05219_c0 - rxn00851_c0_reverse_59c29 + rxn00851_c0
 - rxn05183_c0_reverse_3dbd5 + rxn05183_c0 - rxn05152_c0_reverse_3e5ca
 + rxn05152_c0 - rxn01127_c0_reverse_b0168 + rxn01127_c0
 - rxn00392_c0_reverse_24c76 + rxn00392_c0 - rxn05114_c0_reverse_34e1e
 + rxn05114_c0 - rxn05153_c0_reverse_4452f + rxn05153_c0
 - rxn03075_c0_reverse_5ebcd + rxn03075_c0 - rxn00337_c0_reverse_8318a
 + rxn00337_c0 - rxn01512_c0_reverse_5d6a2 + rxn01512_c0
 - rxn00225_c0_reverse_bc53a + rxn00225_c0 - rxn00985_c0_reverse_5537f
 + rxn00985_c0 - rxn03147_c0_reverse_e6fe4 + rxn03147_c0
 - rxn05146_c0_reverse_e327d + rxn05146_c0 - rxn00412_c0_reverse_f611b
 + rxn00412_c0 - rxn00533_c0_reverse_dfaec + rxn00533_c0
 - rxn00351_c0_reverse_cfbb1 + rxn00351_c0 - rxn01100_c0_reverse_2daa7
 + rxn01100_c0 - rxn01513_c0_reverse_0ef59 + rxn01513_c0
 - 2 rxn00097_c0_reverse_84522 + 2 rxn00097_c0
 - rxn00119_c0_reverse_29188 + rxn00119_c0 - rxn00239_c0_reverse_3a5f6
 + rxn00239_c0 - rxn02937_c0_reverse_ee6a2 + rxn02937_c0
 - rxn01509_c0_reverse_c18be + rxn01509_c0
 - TRANS_DASH_RXNIM_DASH_5895_reverse_e3ee2 + TRANS_DASH_RXNIM_DASH_5895
 - rxn00237_c0_reverse_4cdeb + rxn00237_c0 - rxn00772_c0_reverse_4e4e9
 + rxn00772_c0 - rxn06139_c0_reverse_dfa8c + rxn06139_c0
 - rxn00285_c0_reverse_5970f + rxn00285_c0 - rxn01102_c0_reverse_e553b
 + rxn01102_c0 - rxn03164_c0_reverse_fd17f + rxn03164_c0
 - rxn00839_c0_reverse_e1122 + rxn00839_c0 - rxn03900_c0_reverse_81cc8
 + rxn03900_c0 - rxn02895_c0_reverse_ccce2 + rxn02895_c0
 - rxn08981_c0_reverse_9dac7 + rxn08981_c0 - 2 rxn00689_c0_reverse_da455
 + 2 rxn00689_c0 - TRANS_DASH_RXNIM_DASH_5771_reverse_5f296
 + TRANS_DASH_RXNIM_DASH_5771 + rxn08173_c0_reverse_2f53a - rxn08173_c0
 - rxn02286_c0_reverse_e7172 + rxn02286_c0
 - 1.37 rxn12360_c0_reverse_1fdbb + 1.37 rxn12360_c0
 - 0.4 rxn12361_c0_reverse_35c09 + 0.4 rxn12361_c0
 - rxn03181_c0_reverse_bb21b + rxn03181_c0 - rxn02277_c0_reverse_c3e02
 + rxn02277_c0 - rxn05145_c0_reverse_604c0 + rxn05145_c0
 - rxn01603_c0_reverse_0e247 + rxn01603_c0 - rxn05172_c0_reverse_adef7
 + rxn05172_c0 - rxn01673_c0_reverse_f736f + rxn01673_c0
 + rxn05231_c0_reverse_2f4e0 - rxn05231_c0 - rxn00179_c0_reverse_0d78e
 + rxn00179_c0 - rxn01678_c0_reverse_56988 + rxn01678_c0
 - rxn00077_c0_reverse_deb34 + rxn00077_c0 - rxn00364_c0_reverse_dd122
 + rxn00364_c0 - rxn00409_c0_reverse_250bc + rxn00409_c0
 - rxn05552_c0_reverse_e1fec + rxn05552_c0 - rxn00646_c0_reverse_c5e5a
 + rxn00646_c0 - 2 rxn00414_c0_reverse_bab8c + 2 rxn00414_c0
 - rxn01275_c0_reverse_57a94 + rxn01275_c0 - rxn03084_c0_reverse_df786
 + rxn03084_c0 - rxn00187_c0_reverse_1628c + rxn00187_c0
 - rxn03908_c0_reverse_3787d + rxn03908_c0 - rxn02011_c0_reverse_5a61e
 + rxn02011_c0 - rxn00062_c0_reverse_6beb7 + rxn00062_c0
 - rxn01353_c0_reverse_ca66e + rxn01353_c0 - rxn04783_c0_reverse_9d63f
 + rxn04783_c0 - rxn00100_c0_reverse_97085 + rxn00100_c0 = 0
 cpd02555_c0: + rxn12215_c0_reverse_68c5f - rxn12215_c0
 - rxn03052_c0_reverse_04585 + rxn03052_c0 - rxn00689_c0_reverse_da455
 + rxn00689_c0 = 0
 cpd02738_c0: - rxn12215_c0_reverse_68c5f + rxn12215_c0
 + rxn03052_c0_reverse_04585 - rxn03052_c0 = 0
 cpd16648_c0: + rxn12292_c0_reverse_021f3 - rxn12292_c0
 - rxn12394_c0_reverse_e3df9 + rxn12394_c0 = 0
 cpd11918_c0: - 0.02 rxn12192_c0_reverse_10826 + 0.02 rxn12192_c0
 + rxn06443_c0_reverse_a6b8a - rxn06443_c0 = 0
 cpd00311_c0: + RXN0_DASH_366_reverse_21134 - RXN0_DASH_366
 - rxn00913_c0_reverse_e72c9 + rxn00913_c0 - rxn12427_c0_reverse_ea9d3
 + rxn12427_c0 = 0
 cpd00540_c0: - rxn05579_c0_reverse_68d0c + rxn05579_c0
 - rxn08639_c0_reverse_7f130 + rxn08639_c0 - rxn01867_c0_reverse_ea907
 + rxn01867_c0 = 0
 cpd00083_c0: + rxn00638_c0_reverse_998e3 - rxn00638_c0
 + 1.66 rxn12335_c0_reverse_6be8f - 1.66 rxn12335_c0
 - rxn00640_c0_reverse_e6d45 + rxn00640_c0 = 0
 cpd00235_c0: + rxn00559_c0_reverse_7422a - rxn00559_c0
 + rxn01329_c0_reverse_bcc3d - rxn01329_c0 = 0
 cpd00126_c0: - rxn00301_c0_reverse_bcf0e + rxn00301_c0
 - rxn00917_c0_reverse_35aaa + rxn00917_c0 + rxn00913_c0_reverse_e72c9
 - rxn00913_c0 + rxn00239_c0_reverse_3a5f6 - rxn00239_c0
 + rxn00915_c0_reverse_c94c3 - rxn00915_c0 = 0
 cpd00211_c0: - rxn08184_c0_reverse_47d0f + rxn08184_c0
 - rxn00875_c0_reverse_62069 + rxn00875_c0 = 0
 cpd00480_c0: - rxn01277_c0_reverse_88251 + rxn01277_c0 = 0
 cpd27269_c0: - 0.05 rxn12192_c0_reverse_10826 + 0.05 rxn12192_c0
 + rxn48235_c0_reverse_cb3b8 - rxn48235_c0 = 0
 cpd08289_c0: - rxn03958_c0_reverse_f6c22 + rxn03958_c0
 + rxn09310_c0_reverse_1afad - rxn09310_c0 - rxn03909_c0_reverse_ae095
 + rxn03909_c0 + rxn04070_c0_reverse_7fa04 - rxn04070_c0 = 0
 cpd28152_c0: - 0.04 rxn12192_c0_reverse_10826 + 0.04 rxn12192_c0
 + rxn43380_c0_reverse_45ca6 - rxn43380_c0 = 0
 cpd00412_c0: - rxn01521_c0_reverse_faebb + rxn01521_c0
 - rxn12418_c0_reverse_c8418 + rxn12418_c0 = 0
 cpd00047_e0: + rxn12422_c0_reverse_3885e - rxn12422_c0
 - rxn08525_c0_reverse_2469b + rxn08525_c0
 + EXF_DASH_FORMATE_LBRACKET_Extraorganism_RBRACKET__reverse_84629
 - EXF_DASH_FORMATE_LBRACKET_Extraorganism_RBRACKET_ = 0
 cpd16601_c0: + 0.002 GROWTH_DASH_RXN_reverse_6bca6
 - 0.002 GROWTH_DASH_RXN - 0.2556 rxn12304_c0_reverse_0c0d8
 + 0.2556 rxn12304_c0 = 0
 cpd01113_e0:
 + EXF_DASH_C6_COLON_0_LBRACKET_Extraorganism_RBRACKET__reverse_65ba0
 - EXF_DASH_C6_COLON_0_LBRACKET_Extraorganism_RBRACKET_
 + rxn12393_c0_reverse_1e0a7 - rxn12393_c0 = 0
 cpd15361_c0: - rxn03397_c0_reverse_7d0f6 + rxn03397_c0
 + rxn20472_c0_reverse_e22eb - rxn20472_c0 = 0
 cpd02083_c0: - rxn02288_c0_reverse_dc892 + rxn02288_c0
 + rxn02303_c0_reverse_3b873 - rxn02303_c0 = 0
 cpd01080_e0:
 + EXF_DASH_C18_COLON_0_LBRACKET_Extraorganism_RBRACKET__reverse_ab8dc
 - EXF_DASH_C18_COLON_0_LBRACKET_Extraorganism_RBRACKET_
 + rxn12390_c0_reverse_103df - rxn12390_c0 = 0
 C6_Cytosol: - rxn03408_c0_reverse_f4fb2 + rxn03408_c0
 + rxn12306_c0_reverse_01ca5 - rxn12306_c0 = 0
 cpd00343_c0: - rxn01018_c0_reverse_7ccc7 + rxn01018_c0
 - rxn01465_c0_reverse_5c55f + rxn01465_c0 = 0
 cpd03494_c0: - rxn03904_c0_reverse_f0a70 + rxn03904_c0
 + rxn03408_c0_reverse_f4fb2 - rxn03408_c0 = 0
 cpd16669_c0: + 0.006 GROWTH_DASH_RXN_reverse_6bca6
 - 0.006 GROWTH_DASH_RXN - 0.5013 rxn12358_c0_reverse_c30d7
 + 0.5013 rxn12358_c0 = 0
 cpd16619_c0: + rxn12316_c0_reverse_1fded - rxn12316_c0
 - rxn12317_c0_reverse_f375b + rxn12317_c0 = 0
 cpd11917_c0: - 0.05 rxn12192_c0_reverse_10826 + 0.05 rxn12192_c0
 + rxn06442_c0_reverse_c8767 - rxn06442_c0 = 0
 cpd00029_e0:
 + EXF_DASH_ACET_LBRACKET_Extraorganism_RBRACKET__reverse_ce00d
 - EXF_DASH_ACET_LBRACKET_Extraorganism_RBRACKET_
 + rxn08063_c0_reverse_6fc96 - rxn08063_c0 = 0
 cpd03847_c0: - rxn12387_c0_reverse_f4220 + rxn12387_c0
 + rxn05736_c0_reverse_9104b - rxn05736_c0
 + 0.022 rxn12344_c0_reverse_75205 - 0.022 rxn12344_c0
 - rxn08441_c0_reverse_2611c + rxn08441_c0
 + 0.056 rxn12304_c0_reverse_0c0d8 - 0.056 rxn12304_c0
 - rxn08434_c0_reverse_c9a51 + rxn08434_c0 = 0
 cpd05193_e0: + rxn12454_c0_reverse_41c6b - rxn12454_c0
 + EXF_DASH_SUBERATE_LBRACKET_Extraorganism_RBRACKET__reverse_b9528
 - EXF_DASH_SUBERATE_LBRACKET_Extraorganism_RBRACKET_ = 0
 cpd00042_c0: - rxn01274_c0_reverse_3c82a + rxn01274_c0
 + 2 rxn00086_c0_reverse_3a823 - 2 rxn00086_c0
 - rxn00351_c0_reverse_cfbb1 + rxn00351_c0 - rxn01834_c0_reverse_598cc
 + rxn01834_c0 + 2 rxn00205_c0_reverse_490b1 - 2 rxn00205_c0 = 0
 cpd00363_c0: - rxn12297_c0_reverse_17183 + rxn12297_c0
 + rxn00543_c0_reverse_df82d - rxn00543_c0 - rxn08428_c0_reverse_7ba2b
 + rxn08428_c0 = 0
 QUINATE_Periplasm: 0 rxn12357_c0 = 0
 cpd02857_c0: - DgoA_reverse_449c8 + DgoA + rxn02212_c0_reverse_54d5b
 - rxn02212_c0 - rxn01332_c0_reverse_f9f28 + rxn01332_c0 = 0
 cpd00358_c0: + rxn01519_c0_reverse_4bfd7 - rxn01519_c0
 - rxn01672_c0_reverse_36a9f + rxn01672_c0 - rxn01678_c0_reverse_56988
 + rxn01678_c0 = 0
 cpd00039_e0: - rxn08856_c0_reverse_96103 + rxn08856_c0
 + rxn08854_c0_reverse_00a2b - rxn08854_c0
 + EXF_DASH_LYS_LBRACKET_Extraorganism_RBRACKET__reverse_71822
 - EXF_DASH_LYS_LBRACKET_Extraorganism_RBRACKET_ = 0
 cpd00438_c0: + rxn01858_c0_reverse_04502 - rxn01858_c0
 - rxn12414_c0_reverse_510aa + rxn12414_c0 - rxn01507_c0_reverse_17467
 + rxn01507_c0 = 0
 cpd11461_c0: + 0.032 GROWTH_DASH_RXN_reverse_6bca6
 - 0.032 GROWTH_DASH_RXN - 0.3087 rxn12360_c0_reverse_1fdbb
 + 0.3087 rxn12360_c0 = 0
 cpd27100_c0: - 0.04 rxn12192_c0_reverse_10826 + 0.04 rxn12192_c0
 + rxn41902_c0_reverse_1375a - rxn41902_c0 = 0
 cpd03586_c0: - rxn03439_c0_reverse_dd2d2 + rxn03439_c0
 + rxn12332_c0_reverse_3da81 - rxn12332_c0 = 0
 cpd16643_c0: - rxn12255_c0_reverse_1f2ed + rxn12255_c0
 + rxn12256_c0_reverse_81239 - rxn12256_c0 = 0
 cpd03127_c0: + rxn12309_c0_reverse_1042b - rxn12309_c0
 - C14_COLON_0_DASH_3HYDROXYACP_DASH_DEHYDRATASE_DASH_RXN_reverse_1be06
 + C14_COLON_0_DASH_3HYDROXYACP_DASH_DEHYDRATASE_DASH_RXN = 0
 cpd00137_c0: - TRANS_DASH_RXN_DASH_201_reverse_4fd6f
 + TRANS_DASH_RXN_DASH_201 + rxn00974_c0_reverse_d835d - rxn00974_c0
 - rxn12371_c0_reverse_a7a4a + rxn12371_c0 + rxn00256_c0_reverse_b1561
 - rxn00256_c0 = 0
 cpd00130_e0: + TRANS_DASH_RXN_DASH_MAL_DASH_DAACS_reverse_bfc25
 - TRANS_DASH_RXN_DASH_MAL_DASH_DAACS + rxn12446_c0_reverse_6e6b8
 - rxn12446_c0
 + EXF_DASH_MAL_LBRACKET_Extraorganism_RBRACKET__reverse_4d9ac
 - EXF_DASH_MAL_LBRACKET_Extraorganism_RBRACKET_ = 0
 cpd02882_c0: + rxn03080_c0_reverse_17453 - rxn03080_c0
 - rxn00048_c0_reverse_70384 + rxn00048_c0 - rxn05039_c0_reverse_b851c
 + rxn05039_c0 = 0
 cpd01501_c0: + x_1696 - x_1695 + rxn00679_c0_reverse_243e0
 - rxn00679_c0 = 0
 cpd01113_c0: - rxn08446_c0_reverse_2e5b5 + rxn08446_c0
 + rxn12288_c0_reverse_8e47c - rxn12288_c0 - rxn12393_c0_reverse_1e0a7
 + rxn12393_c0 = 0
 cpd03642_c0: + rxn04753_c0_reverse_d3920 - rxn04753_c0
 - rxn12382_c0_reverse_485cf + rxn12382_c0 = 0
 cpd02991_c0: - rxn03135_c0_reverse_4b505 + rxn03135_c0
 - rxn03175_c0_reverse_1e81a + rxn03175_c0 = 0
 cpd00144_c0: - rxn00211_c0_reverse_3e4c5 + rxn00211_c0 = 0
 cpd00085_c0: + rxn01791_c0_reverse_2cc23 - rxn01791_c0
 - rxn00346_c0_reverse_1d180 + rxn00346_c0 = 0
 cpd02431_c0: + rxn00504_c0_reverse_5bbb1 - rxn00504_c0
 - rxn09188_c0_reverse_a86f7 + rxn09188_c0 - rxn02374_c0_reverse_681e0
 + rxn02374_c0 - rxn00929_c0_reverse_055cd + rxn00929_c0 = 0
 cpd00222_e0:
 + EXF_DASH_GLUCONATE_LBRACKET_Extraorganism_RBRACKET__reverse_19277
 - EXF_DASH_GLUCONATE_LBRACKET_Extraorganism_RBRACKET_
 - rxn01107_c0_reverse_62e5d + rxn01107_c0 + rxn08610_c0_reverse_534ac
 - rxn08610_c0 + rxn12363_c0_reverse_7cafd - rxn12363_c0 = 0
 cpd02978_c0: - rxn00299_c0_reverse_d20b3 + rxn00299_c0
 + rxn03173_c0_reverse_e93ab - rxn03173_c0 = 0
 cpd00094_c0: + rxn08043_c0_reverse_11b99 - rxn08043_c0
 - rxn00737_c0_reverse_8a60e + rxn00737_c0 = 0
 cpd22249_c0: - 0.13 rxn12192_c0_reverse_10826 + 0.13 rxn12192_c0
 + rxn48506_c0_reverse_07d35 - rxn48506_c0 = 0
 cpd11313_c0: - rxn05120_c0_reverse_6f116 + rxn05120_c0 = 0
 cpd01741_e0:
 + EXF_DASH_C12_COLON_0_LBRACKET_Extraorganism_RBRACKET__reverse_6d87a
 - EXF_DASH_C12_COLON_0_LBRACKET_Extraorganism_RBRACKET_
 + rxn12386_c0_reverse_95c5d - rxn12386_c0 = 0
 cpd28243_c0: - 0.02 rxn12192_c0_reverse_10826 + 0.02 rxn12192_c0
 + rxn41935_c0_reverse_db2c5 - rxn41935_c0 = 0
 cpd11423_c0: - rxn06138_c0_reverse_460eb + rxn06138_c0
 + rxn06139_c0_reverse_dfa8c - rxn06139_c0 + rxn12345_c0_reverse_1e310
 - rxn12345_c0 - rxn12348_c0_reverse_6d0fb + rxn12348_c0 = 0
 cpd00412_e0:
 + EXF_DASH_DEOXYURIDINE_LBRACKET_Extraorganism_RBRACKET__reverse_8325a
 - EXF_DASH_DEOXYURIDINE_LBRACKET_Extraorganism_RBRACKET_
 + rxn12418_c0_reverse_c8418 - rxn12418_c0 = 0
 cpd00497_c0: + rxn00917_c0_reverse_35aaa - rxn00917_c0
 + rxn01961_c0_reverse_03538 - rxn01961_c0 + rxn01544_c0_reverse_f6321
 - rxn01544_c0 - rxn00834_c0_reverse_0227f + rxn00834_c0 = 0
 cpd00279_c0: - rxn01451_c0_reverse_007d5 + rxn01451_c0
 - rxn00178_c0_reverse_ffe8c + rxn00178_c0 + rxn00990_c0_reverse_b2e16
 - rxn00990_c0 = 0
 cpd00139_c0: - rxn00980_c0_reverse_3afe7 + rxn00980_c0
 + rxn08653_c0_reverse_99b7d - rxn08653_c0 - rxn05470_c0_reverse_af18e
 + rxn05470_c0 - rxn00979_c0_reverse_e9063 + rxn00979_c0 = 0
 cpd00023_e0: + rxn12370_c0_reverse_7557c - rxn12370_c0
 + rxn05298_c0_reverse_0b121 - rxn05298_c0 + rxn05146_c0_reverse_e327d
 - rxn05146_c0
 + EXF_DASH_GLT_LBRACKET_Extraorganism_RBRACKET__reverse_bdf23
 - EXF_DASH_GLT_LBRACKET_Extraorganism_RBRACKET_ = 0
 cpd03606_c0: - rxn02939_c0_reverse_b8d87 + rxn02939_c0
 - rxn03445_c0_reverse_92435 + rxn03445_c0 = 0
 cpd00504_c0: - rxn01973_c0_reverse_613ad + rxn01973_c0
 + rxn01974_c0_reverse_bdb12 - rxn01974_c0 = 0
 cpd00443_c0: - rxn03841_c0_reverse_be66b + rxn03841_c0
 + rxn02201_c0_reverse_551c1 - rxn02201_c0 = 0
 cpd00797_c0: - rxn12405_c0_reverse_82dd5 + rxn12405_c0
 + rxn00992_c0_reverse_347e6 - rxn00992_c0 = 0
 cpd00478_c0: - rxn04070_c0_reverse_7fa04 + rxn04070_c0
 + rxn00209_c0_reverse_5689c - rxn00209_c0 = 0
 cpd16653_c0: + 0.032 GROWTH_DASH_RXN_reverse_6bca6
 - 0.032 GROWTH_DASH_RXN - 0.61 rxn12496_c0_reverse_ff0a4
 + 0.61 rxn12496_c0 = 0
 cpd00098_c0: - rxn08213_c0_reverse_3bf3a + rxn08213_c0
 + rxn10770_c0_reverse_d53c0 - rxn10770_c0 = 0
 cpd01727_e0:
 + EXF_DASH_CPD_DASH_205_LBRACKET_Extraorganism_RBRACKET__reverse_8f867
 - EXF_DASH_CPD_DASH_205_LBRACKET_Extraorganism_RBRACKET_
 + rxn12403_c0_reverse_d30dd - rxn12403_c0 = 0
 cpd11468_c0: + 0.62 rxn12331_c0_reverse_d8803 - 0.62 rxn12331_c0
 + rxn05345_c0_reverse_d76ed - rxn05345_c0 + rxn05324_c0_reverse_b041c
 - rxn05324_c0 + rxn06556_c0_reverse_11a34 - rxn06556_c0 = 0
 cpd08615_c0: + rxn04113_c0_reverse_d915b - rxn04113_c0
 - rxn10092_c0_reverse_5e6d7 + rxn10092_c0 - rxn04996_c0_reverse_f7c7e
 + rxn04996_c0 = 0
 cpd11463_c0: + 0.633 GROWTH_DASH_RXN_reverse_6bca6
 - 0.633 GROWTH_DASH_RXN - 0.0988 rxn12192_c0_reverse_10826
 + 0.0988 rxn12192_c0 = 0
 SO3_Extraorganism: - rxn09260_c0_reverse_dfd83 + rxn09260_c0
 + EXF_DASH_SO3_LBRACKET_Extraorganism_RBRACKET__reverse_d531f
 - EXF_DASH_SO3_LBRACKET_Extraorganism_RBRACKET_ = 0
 cpd00727_c0: + rxn00980_c0_reverse_3afe7 - rxn00980_c0 = 0
 cpd03120_c0: + rxn03246_c0_reverse_93213 - rxn03246_c0
 + rxn03247_c0_reverse_39359 - rxn03247_c0 = 0
 cpd00284_c0: + rxn01477_c0_reverse_67584 - rxn01477_c0
 - rxn01275_c0_reverse_57a94 + rxn01275_c0 = 0
 cpd02103_c0: - rxn00601_c0_reverse_07197 + rxn00601_c0
 + rxn02927_c0_reverse_172ad - rxn02927_c0 = 0
 cpd04104_c0: + rxn03866_c0_reverse_9131f - rxn03866_c0
 - rxn03617_c0_reverse_69746 + rxn03617_c0 = 0
 r_829: - GROWTH_DASH_RXN_reverse_6bca6 + GROWTH_DASH_RXN >= 0

Bounds
 0 <= rxn12357_c0 <= 1000
 0 <= rxn12357_c0_reverse_bbe8a <= 1000
 0 <= rxn00947_c0 <= 1000
 0 <= rxn00947_c0_reverse_e410e <= 1000
 0 <= rxn00100_c0 <= 1000
 0 <= rxn00100_c0_reverse_97085 <= 1000
 0 <= rxn00305_c0 <= 1000
 0 <= rxn00305_c0_reverse_b1f24 <= 1000
 0 <= rxn04783_c0 <= 1000
 0 <= rxn04783_c0_reverse_9d63f <= 1000
 0 <= rxn15467_c0 <= 1000
 0 <= rxn15467_c0_reverse_81ce7 <= 1000
 0 <= rxn00199_c0 <= 1000
 0 <= rxn00199_c0_reverse_0d3eb <= 1000
 0 <= rxn01353_c0 <= 1000
 0 <= rxn01353_c0_reverse_ca66e <= 1000
 0 <= rxn03887_c0 <= 1000
 0 <= rxn03887_c0_reverse_5f951 <= 1000
 0 <= rxn12353_c0 <= 1000
 0 <= rxn12353_c0_reverse_b4bf0 <= 1000
 0 <= EXF_DASH_CPD_DASH_592_LBRACKET_Extraorganism_RBRACKET_ <= 100
 EXF_DASH_CPD_DASH_592_LBRACKET_Extraorganism_RBRACKET__reverse_ab0e8 = 0
 0 <= rxn06556_c0 <= 1000
 0 <= rxn06556_c0_reverse_11a34 <= 1000
 0 <= EXF_DASH_GUANOSINE_LBRACKET_Extraorganism_RBRACKET_ <= 100
 EXF_DASH_GUANOSINE_LBRACKET_Extraorganism_RBRACKET__reverse_fa777 = 0
 0 <= rxn00338_c0 <= 1000
 0 <= rxn00338_c0_reverse_0c70e <= 1000
 0 <= EXF_DASH_GLY_LBRACKET_Extraorganism_RBRACKET_ <= 100
 EXF_DASH_GLY_LBRACKET_Extraorganism_RBRACKET__reverse_94932 = 0
 0 <= rxn07577_c0 <= 1000
 0 <= rxn07577_c0_reverse_263c7 <= 1000
 0 <= rxn01974_c0 <= 1000
 0 <= rxn01974_c0_reverse_bdb12 <= 1000
 0 <= rxn00990_c0 <= 1000
 0 <= rxn00990_c0_reverse_b2e16 <= 1000
 0 <= rxn00062_c0 <= 1000
 0 <= rxn00062_c0_reverse_6beb7 <= 1000
 0 <= rxn08353_c0 <= 1000
 0 <= rxn08353_c0_reverse_d5376 <= 1000
 0 <= rxn00867_c0 <= 1000
 0 <= rxn00867_c0_reverse_81169 <= 1000
 0 <= rxn12232_c0 <= 1000
 0 <= rxn12232_c0_reverse_a85f0 <= 1000
 0 <= rxn01299_c0 <= 1000
 0 <= rxn01299_c0_reverse_cdf8f <= 1000
 0 <= rxn12494_c0 <= 1000
 0 <= rxn12494_c0_reverse_b1375 <= 1000
 0 <= rxn02011_c0 <= 1000
 0 <= rxn02011_c0_reverse_5a61e <= 1000
 0 <= rxn00929_c0 <= 1000
 0 <= rxn00929_c0_reverse_055cd <= 1000
 0 <= rxn00327_c0 <= 1000
 0 <= rxn00327_c0_reverse_ce61d <= 1000
 0 <= rxn02834_c0 <= 1000
 0 <= rxn02834_c0_reverse_537f6 <= 1000
 0 <= rxn12280_c0 <= 1000
 0 <= rxn12280_c0_reverse_423fc <= 1000
 0 <= EXF_DASH_CPD_DASH_335_LBRACKET_Extraorganism_RBRACKET_ <= 100
 EXF_DASH_CPD_DASH_335_LBRACKET_Extraorganism_RBRACKET__reverse_b3dc3 = 0
 0 <= EXF_DASH_HOMO_DASH_SER_LBRACKET_Extraorganism_RBRACKET_ <= 100
 EXF_DASH_HOMO_DASH_SER_LBRACKET_Extraorganism_RBRACKET__reverse_ee253 = 0
 0 <= rxn12393_c0 <= 1000
 0 <= rxn12393_c0_reverse_1e0a7 <= 1000
 0 <= rxn05350_c0 <= 1000
 0 <= rxn05350_c0_reverse_79ec3 <= 1000
 0 <= rxn00205_c0 <= 1000
 0 <= rxn00205_c0_reverse_490b1 <= 1000
 0 <= rxn03908_c0 <= 1000
 0 <= rxn03908_c0_reverse_3787d <= 1000
 0 <= rxn01106_c0 <= 1000
 0 <= rxn01106_c0_reverse_bc17a <= 1000
 0 <= rxn08861_c0 <= 1000
 0 <= rxn08861_c0_reverse_14032 <= 1000
 0 <= rxn01188_c0 <= 1000
 0 <= rxn01188_c0_reverse_574aa <= 1000
 0 <= EXF_DASH_GLC_LBRACKET_Extraorganism_RBRACKET_ <= 100
 EXF_DASH_GLC_LBRACKET_Extraorganism_RBRACKET__reverse_9c5ff = 0
 0 <= rxn03137_c0 <= 1000
 0 <= rxn03137_c0_reverse_91072 <= 1000
 0 <= rxn03394_c0 <= 1000
 0 <= rxn03394_c0_reverse_6c71b <= 1000
 0 <= rxn08291_c0 <= 1000
 0 <= rxn08291_c0_reverse_9e151 <= 1000
 0 <= rxn12217_c0 <= 1000
 0 <= rxn12217_c0_reverse_aabb4 <= 1000
 0 <= EXF_DASH_FUM_LBRACKET_Extraorganism_RBRACKET_ <= 100
 EXF_DASH_FUM_LBRACKET_Extraorganism_RBRACKET__reverse_3dec6 = 0
 0 <= rxn20547_c0 <= 1000
 0 <= rxn20547_c0_reverse_82a23 <= 1000
 0 <= rxn00737_c0 <= 1000
 0 <= rxn00737_c0_reverse_8a60e <= 1000
 0 <= rxn20472_c0 <= 1000
 0 <= rxn20472_c0_reverse_e22eb <= 1000
 0 <= rxn19256_c0 <= 1000
 0 <= rxn19256_c0_reverse_fc363 <= 1000
 0 <= rxn12241_c0 <= 1000
 0 <= rxn12241_c0_reverse_bb72e <= 1000
 0 <= rxn00187_c0 <= 1000
 0 <= rxn00187_c0_reverse_1628c <= 1000
 0 <= EXF_DASH_ASN_LBRACKET_Extraorganism_RBRACKET_ <= 100
 EXF_DASH_ASN_LBRACKET_Extraorganism_RBRACKET__reverse_bf593 = 0
 0 <= rxn00469_c0 <= 1000
 0 <= rxn00469_c0_reverse_1b6e4 <= 1000
 0 <= rxn02302_c0 <= 1000
 0 <= rxn02302_c0_reverse_fbe6c <= 1000
 0 <= rxn03907_c0 <= 1000
 0 <= rxn03907_c0_reverse_daf14 <= 1000
 0 <= rxn12240_c0 <= 1000
 0 <= rxn12240_c0_reverse_4cd56 <= 1000
 0 <= rxn12247_c0 <= 1000
 0 <= rxn12247_c0_reverse_78639 <= 1000
 0 <= rxn12356_c0 <= 1000
 0 <= rxn12356_c0_reverse_073a5 <= 1000
 0 <= EXF_DASH_XANTHINE_LBRACKET_Extraorganism_RBRACKET_ <= 100
 EXF_DASH_XANTHINE_LBRACKET_Extraorganism_RBRACKET__reverse_cdba1 = 0
 0 <= rxn02066_c0 <= 1000
 0 <= rxn02066_c0_reverse_5e5fe <= 1000
 0 <= rxn08783_c0 <= 1000
 0 <= rxn08783_c0_reverse_99f14 <= 1000
 0 <= rxn01781_c0 <= 1000
 0 <= rxn01781_c0_reverse_14eaa <= 1000
 0 <= rxn12364_c0 <= 1000
 0 <= rxn12364_c0_reverse_1c0bf <= 1000
 0 <= rxn05343_c0 <= 1000
 0 <= rxn05343_c0_reverse_aba9f <= 1000
 0 <= rxn01182_c0 <= 1000
 0 <= rxn01182_c0_reverse_aefb6 <= 1000
 0 <= rxn00190_c0 <= 1000
 0 <= rxn00190_c0_reverse_12593 <= 1000
 0 <= rxn00470_c0 <= 1000
 0 <= rxn00470_c0_reverse_42ad5 <= 1000
 0 <= rxn05460_c0 <= 1000
 0 <= rxn05460_c0_reverse_8c2ca <= 1000
 0 <= rxn00379_c0 <= 1000
 0 <= rxn00379_c0_reverse_79b90 <= 1000
 0 <= rxn03084_c0 <= 1000
 0 <= rxn03084_c0_reverse_df786 <= 1000
 0 <= EXF_DASH_D_DASH_GALACTARATE_LBRACKET_Extraorganism_RBRACKET_ <= 100
 EXF_DASH_D_DASH_GALACTARATE_LBRACKET_Extraorganism_RBRACKET__reverse_a0a66 = 0
 0 <= rxn12381_c0 <= 1000
 0 <= rxn12381_c0_reverse_0ce91 <= 1000
 0 <= rxn02264_c0 <= 1000
 0 <= rxn02264_c0_reverse_b57e2 <= 1000
 0 <= rxn12418_c0 <= 1000
 0 <= rxn12418_c0_reverse_c8418 <= 1000
 0 <= rxn01434_c0 <= 1000
 0 <= rxn01434_c0_reverse_c28bc <= 1000
 0 <= rxn05324_c0 <= 1000
 0 <= rxn05324_c0_reverse_b041c <= 1000
 0 <= rxn01644_c0 <= 1000
 0 <= rxn01644_c0_reverse_e93fc <= 1000
 0 <= rxn01352_c0 <= 1000
 0 <= rxn01352_c0_reverse_998e4 <= 1000
 0 <= rxn12348_c0 <= 1000
 0 <= rxn12348_c0_reverse_6d0fb <= 1000
 0 <= rxn12397_c0 <= 1000
 0 <= rxn12397_c0_reverse_25fe7 <= 1000
 0 <= rxn08625_c0 <= 1000
 0 <= rxn08625_c0_reverse_90fe8 <= 1000
 0 <= rxn17731_c0 <= 1000
 0 <= rxn17731_c0_reverse_a1749 <= 1000
 0 <= rxn05040_c0 <= 1000
 0 <= rxn05040_c0_reverse_58dbe <= 1000
 0 <= EXF_DASH_D_DASH_ALANINE_LBRACKET_Extraorganism_RBRACKET_ <= 100
 EXF_DASH_D_DASH_ALANINE_LBRACKET_Extraorganism_RBRACKET__reverse_4e9d9 = 0
 0 <= rxn06443_c0 <= 1000
 0 <= rxn06443_c0_reverse_a6b8a <= 1000
 0 <= EXF_DASH_TRP_LBRACKET_Extraorganism_RBRACKET_ <= 100
 EXF_DASH_TRP_LBRACKET_Extraorganism_RBRACKET__reverse_c80fc = 0
 0 <= rxn06510_c0 <= 1000
 0 <= rxn06510_c0_reverse_b57fe <= 1000
 0 <= EXF_DASH_PYRUVATE_LBRACKET_Extraorganism_RBRACKET_ <= 100
 EXF_DASH_PYRUVATE_LBRACKET_Extraorganism_RBRACKET__reverse_435d6 = 0
 0 <= rxn01629_c0 <= 1000
 0 <= rxn01629_c0_reverse_6daca <= 1000
 0 <= rxn01329_c0 <= 1000
 0 <= rxn01329_c0_reverse_bcc3d <= 1000
 0 <= rxn05322_c0 <= 1000
 0 <= rxn05322_c0_reverse_fab80 <= 1000
 0 <= rxn03910_c0 <= 1000
 0 <= rxn03910_c0_reverse_3633b <= 1000
 0 <= rxn01507_c0 <= 1000
 0 <= rxn01507_c0_reverse_17467 <= 1000
 0 <= rxn01015_c0 <= 1000
 0 <= rxn01015_c0_reverse_329e1 <= 1000
 0 <= EXF_DASH_NITRATE_LBRACKET_Extraorganism_RBRACKET_ <= 100
 EXF_DASH_NITRATE_LBRACKET_Extraorganism_RBRACKET__reverse_21969 = 0
 0 <= rxn00957_c0 <= 1000
 0 <= rxn00957_c0_reverse_b25dd <= 1000
 0 <= rxn02296_c0 <= 1000
 0 <= rxn02296_c0_reverse_115eb <= 1000
 0 <= rxn00907_c0 <= 1000
 0 <= rxn00907_c0_reverse_cad1b <= 1000
 0 <= rxn02944_c0 <= 1000
 0 <= rxn02944_c0_reverse_14577 <= 1000
 0 <= rxn00293_c0 <= 1000
 0 <= rxn00293_c0_reverse_820c7 <= 1000
 0 <= rxn01834_c0 <= 1000
 0 <= rxn01834_c0_reverse_598cc <= 1000
 0 <= rxn02167_c0 <= 1000
 0 <= rxn02167_c0_reverse_8528a <= 1000
 0 <= rxn01275_c0 <= 1000
 0 <= rxn01275_c0_reverse_57a94 <= 1000
 0 <= rxn12408_c0 <= 1000
 0 <= rxn12408_c0_reverse_ba3b4 <= 1000
 0 <= rxn12404_c0 <= 1000
 0 <= rxn12404_c0_reverse_6815f <= 1000
 0 <= rxn02914_c0 <= 1000
 0 <= rxn02914_c0_reverse_5766b <= 1000
 0 <= rxn09014_c0 <= 1000
 0 <= rxn09014_c0_reverse_95e82 <= 1000
 0 <= rxn00178_c0 <= 1000
 0 <= rxn00178_c0_reverse_ffe8c <= 1000
 0 <= rxn05338_c0 <= 1000
 0 <= rxn05338_c0_reverse_75efd <= 1000
 0 <= rxn19846_c0 <= 1000
 0 <= rxn19846_c0_reverse_1ddb1 <= 1000
 0 <= rxn02112_c0 <= 1000
 0 <= rxn02112_c0_reverse_c4928 <= 1000
 0 <= rxn02869_c0 <= 1000
 0 <= rxn02869_c0_reverse_701c7 <= 1000
 0 <= rxn00214_c0 <= 1000
 0 <= rxn00214_c0_reverse_91d50 <= 1000
 0 <= rxn03244_c0 <= 1000
 0 <= rxn03244_c0_reverse_83dcb <= 1000
 0 <= rxn12288_c0 <= 1000
 0 <= rxn12288_c0_reverse_8e47c <= 1000
 0 <= rxn00192_c0 <= 1000
 0 <= rxn00192_c0_reverse_18e72 <= 1000
 0 <= EXF_DASH_MAL_LBRACKET_Extraorganism_RBRACKET_ <= 100
 EXF_DASH_MAL_LBRACKET_Extraorganism_RBRACKET__reverse_4d9ac = 0
 0 <= rxn00414_c0 <= 1000
 0 <= rxn00414_c0_reverse_bab8c <= 1000
 0 <= rxn12298_c0 <= 1000
 0 <= rxn12298_c0_reverse_6acb7 <= 1000
 0 <= rxn00060_c0 <= 1000
 0 <= rxn00060_c0_reverse_5ca93 <= 1000
 0 <= rxn01675_c0 <= 1000
 0 <= rxn01675_c0_reverse_42827 <= 1000
 0 <= rxn09048_c0 <= 1000
 0 <= rxn09048_c0_reverse_34b99 <= 1000
 0 <= rxn01445_c0 <= 1000
 0 <= rxn01445_c0_reverse_e75dd <= 1000
 0 <= rxn12200_c0 <= 1000
 0 <= rxn12200_c0_reverse_02e82 <= 1000
 0 <= rxn01069_c0 <= 1000
 0 <= rxn01069_c0_reverse_6c902 <= 1000
 0 <= rxn12238_c0 <= 1000
 0 <= rxn12238_c0_reverse_7d85b <= 1000
 0 <= rxn12299_c0 <= 1000
 0 <= rxn12299_c0_reverse_d2706 <= 1000
 0 <= rxn02971_c0 <= 1000
 0 <= rxn02971_c0_reverse_bda0c <= 1000
 0 <= rxn12260_c0 <= 1000
 0 <= rxn12260_c0_reverse_b895f <= 1000
 0 <= rxn00646_c0 <= 1000
 0 <= rxn00646_c0_reverse_c5e5a <= 1000
 0 <= rxn02331_c0 <= 1000
 0 <= rxn02331_c0_reverse_1f746 <= 1000
 0 <= rxn00101_c0 <= 1000
 0 <= rxn00101_c0_reverse_6edc5 <= 1000
 0 <= rxn00525_c0 <= 1000
 0 <= rxn00525_c0_reverse_dab5c <= 1000
 0 <= rxn12320_c0 <= 1000
 0 <= rxn12320_c0_reverse_d53d3 <= 1000
 0 <= rxn12384_c0 <= 1000
 0 <= rxn12384_c0_reverse_8d22d <= 1000
 0 <= EXF_DASH_SUBERATE_LBRACKET_Extraorganism_RBRACKET_ <= 100
 EXF_DASH_SUBERATE_LBRACKET_Extraorganism_RBRACKET__reverse_b9528 = 0
 0 <= rxn01200_c0 <= 1000
 0 <= rxn01200_c0_reverse_327cb <= 1000
 0 <= rxn00992_c0 <= 1000
 0 <= rxn00992_c0_reverse_347e6 <= 1000
 0 <= EXF_DASH_ARG_LBRACKET_Extraorganism_RBRACKET_ <= 100
 EXF_DASH_ARG_LBRACKET_Extraorganism_RBRACKET__reverse_afd17 = 0
 0 <= rxn00147_c0 <= 1000
 0 <= rxn00147_c0_reverse_87430 <= 1000
 0 <= rxn12350_c0 <= 1000
 0 <= rxn12350_c0_reverse_31a51 <= 1000
 0 <= rxn02213_c0 <= 1000
 0 <= rxn02213_c0_reverse_d7e4f <= 1000
 0 <= rxn05552_c0 <= 1000
 0 <= rxn05552_c0_reverse_e1fec <= 1000
 0 <= rxn12332_c0 <= 1000
 0 <= rxn12332_c0_reverse_3da81 <= 1000
 0 <= rxn00209_c0 <= 1000
 0 <= rxn00209_c0_reverse_5689c <= 1000
 0 <= rxn02374_c0 <= 1000
 0 <= rxn02374_c0_reverse_681e0 <= 1000
 0 <= rxn01256_c0 <= 1000
 0 <= rxn01256_c0_reverse_fefb2 <= 1000
 0 <= rxn03395_c0 <= 1000
 0 <= rxn03395_c0_reverse_2cac4 <= 1000
 0 <= EXF_DASH_BETAINE_LBRACKET_Extraorganism_RBRACKET_ <= 100
 EXF_DASH_BETAINE_LBRACKET_Extraorganism_RBRACKET__reverse_46709 = 0
 0 <= rxn08030_c0 <= 1000
 0 <= rxn08030_c0_reverse_9d635 <= 1000
 0 <= rxn00409_c0 <= 1000
 0 <= rxn00409_c0_reverse_250bc <= 1000
 0 <= rxn04025_c0 <= 1000
 0 <= rxn04025_c0_reverse_491d8 <= 1000
 0 <= rxn00085_c0 <= 1000
 0 <= rxn00085_c0_reverse_ae294 <= 1000
 0 <= rxn12395_c0 <= 1000
 0 <= rxn12395_c0_reverse_638bc <= 1000
 0 <= EXF_DASH_CHOLINE_LBRACKET_Extraorganism_RBRACKET_ <= 100
 EXF_DASH_CHOLINE_LBRACKET_Extraorganism_RBRACKET__reverse_a3469 = 0
 0 <= rxn00364_c0 <= 1000
 0 <= rxn00364_c0_reverse_dd122 <= 1000
 0 <= rxn00083_c0 <= 1000
 0 <= rxn00083_c0_reverse_7aa1e <= 1000
 0 <= rxn00785_c0 <= 1000
 0 <= rxn00785_c0_reverse_f6e32 <= 1000
 0 <= EXF_DASH_D_DASH_LACTATE_LBRACKET_Extraorganism_RBRACKET_ <= 100
 EXF_DASH_D_DASH_LACTATE_LBRACKET_Extraorganism_RBRACKET__reverse_dcfde = 0
 0 <= rxn00979_c0 <= 1000
 0 <= rxn00979_c0_reverse_e9063 <= 1000
 0 <= rxn12345_c0 <= 1000
 0 <= rxn12345_c0_reverse_1e310 <= 1000
 0 <= rxn00598_c0 <= 1000
 0 <= rxn00598_c0_reverse_faf9e <= 1000
 0 <= rxn00077_c0 <= 1000
 0 <= rxn00077_c0_reverse_deb34 <= 1000
 0 <= rxn12435_c0 <= 1000
 0 <= rxn12435_c0_reverse_f0c8d <= 1000
 0 <= rxn01368_c0 <= 1000
 0 <= rxn01368_c0_reverse_895ab <= 1000
 0 <= rxn01678_c0 <= 1000
 0 <= rxn01678_c0_reverse_56988 <= 1000
 0 <= rxn01790_c0 <= 1000
 0 <= rxn01790_c0_reverse_d68bb <= 1000
 0 <= rxn02988_c0 <= 1000
 0 <= rxn02988_c0_reverse_371a0 <= 1000
 0 <= rxn02186_c0 <= 1000
 0 <= rxn02186_c0_reverse_23de4 <= 1000
 0 <= rxn00802_c0 <= 1000
 0 <= rxn00802_c0_reverse_5f20a <= 1000
 0 <= rxn03159_c0 <= 1000
 0 <= rxn03159_c0_reverse_808d3 <= 1000
 0 <= rxn00692_c0 <= 1000
 0 <= rxn00692_c0_reverse_2db83 <= 1000
 0 <= EXF_DASH_CONIFERYL_DASH_ALDEHYDE_LBRACKET_Extraorganism_RBRACKET_ <= 100
 EXF_DASH_CONIFERYL_DASH_ALDEHYDE_LBRACKET_Extraorganism_RBRACKET__reverse_5a6ce = 0
 0 <= rxn00461_c0 <= 1000
 0 <= rxn00461_c0_reverse_73c3f <= 1000
 0 <= rxn00711_c0 <= 1000
 0 <= rxn00711_c0_reverse_2f39d <= 1000
 0 <= rxn03393_c0 <= 1000
 0 <= rxn03393_c0_reverse_f213f <= 1000
 0 <= rxn00179_c0 <= 1000
 0 <= rxn00179_c0_reverse_0d78e <= 1000
 0 <= EXF_DASH_CARBON_DASH_DIOXIDE_LBRACKET_Extraorganism_RBRACKET_ <= 100
 0 <= EXF_DASH_CARBON_DASH_DIOXIDE_LBRACKET_Extraorganism_RBRACKET__reverse_f7fa7 <= 100
 0 <= rxn07465_c0 <= 1000
 0 <= rxn07465_c0_reverse_a8c94 <= 1000
 0 <= rxn12372_c0 <= 1000
 0 <= rxn12372_c0_reverse_14f01 <= 1000
 0 <= rxn05231_c0 <= 1000
 0 <= rxn05231_c0_reverse_2f4e0 <= 1000
 0 <= rxn12307_c0 <= 1000
 0 <= rxn12307_c0_reverse_cfe82 <= 1000
 0 <= rxn09272_c0 <= 1000
 0 <= rxn09272_c0_reverse_40d41 <= 1000
 0 <= rxn02003_c0 <= 1000
 0 <= rxn02003_c0_reverse_8665b <= 1000
 0 <= rxn03146_c0 <= 1000
 0 <= rxn03146_c0_reverse_5fcc1 <= 1000
 0 <= rxn12249_c0 <= 1000
 0 <= rxn12249_c0_reverse_80b67 <= 1000
 0 <= rxn02483_c0 <= 1000
 0 <= rxn02483_c0_reverse_c2902 <= 1000
 0 <= rxn00708_c0 <= 1000
 0 <= rxn00708_c0_reverse_fe989 <= 1000
 0 <= EXF_DASH_4_DASH_HYDROXYBENZOATE_LBRACKET_Extraorganism_RBRACKET_ <= 100
 EXF_DASH_4_DASH_HYDROXYBENZOATE_LBRACKET_Extraorganism_RBRACKET__reverse_ca713 = 0
 0 <= rxn00946_c0 <= 1000
 0 <= rxn00946_c0_reverse_db319 <= 1000
 0 <= EXF_DASH_DEOXYADENOSINE_LBRACKET_Extraorganism_RBRACKET_ <= 100
 EXF_DASH_DEOXYADENOSINE_LBRACKET_Extraorganism_RBRACKET__reverse_93660 = 0
 0 <= rxn08439_c0 <= 1000
 0 <= rxn08439_c0_reverse_b2eb5 <= 1000
 0 <= rxn12414_c0 <= 1000
 0 <= rxn12414_c0_reverse_510aa <= 1000
 0 <= rxn10204_c0 <= 1000
 0 <= rxn10204_c0_reverse_e1ced <= 1000
 0 <= rxn46484_c0 <= 1000
 0 <= rxn46484_c0_reverse_80bc7 <= 1000
 0 <= rxn08130_c0 <= 1000
 0 <= rxn08130_c0_reverse_96dfb <= 1000
 0 <= rxn01673_c0 <= 1000
 0 <= rxn01673_c0_reverse_f736f <= 1000
 0 <= rxn09953_c0 <= 1000
 0 <= rxn09953_c0_reverse_f5bd1 <= 1000
 0 <= rxn03630_c0 <= 1000
 0 <= rxn03630_c0_reverse_def42 <= 1000
 0 <= rxn05333_c0 <= 1000
 0 <= rxn05333_c0_reverse_d5880 <= 1000
 0 <= rxn12417_c0 <= 1000
 0 <= rxn12417_c0_reverse_de9ac <= 1000
 0 <= rxn00063_c0 <= 1000
 0 <= rxn00063_c0_reverse_f75e0 <= 1000
 0 <= rxn03445_c0 <= 1000
 0 <= rxn03445_c0_reverse_92435 <= 1000
 0 <= rxn03397_c0 <= 1000
 0 <= rxn03397_c0_reverse_7d0f6 <= 1000
 0 <= rxn01746_c0 <= 1000
 0 <= rxn01746_c0_reverse_f4eaf <= 1000
 0 <= rxn19072_c0 <= 1000
 0 <= rxn19072_c0_reverse_37d07 <= 1000
 0 <= rxn05172_c0 <= 1000
 0 <= rxn05172_c0_reverse_adef7 <= 1000
 0 <= rxn00500_c0 <= 1000
 0 <= rxn00500_c0_reverse_abe43 <= 1000
 0 <= rxn03253_c0 <= 1000
 0 <= rxn03253_c0_reverse_89a23 <= 1000
 0 <= rxn00189_c0 <= 1000
 0 <= rxn00189_c0_reverse_e4fb9 <= 1000
 0 <= rxn05340_c0 <= 1000
 0 <= rxn05340_c0_reverse_36403 <= 1000
 0 <= rxn12262_c0 <= 1000
 0 <= rxn12262_c0_reverse_d52a0 <= 1000
 0 <= rxn05341_c0 <= 1000
 0 <= rxn05341_c0_reverse_c963e <= 1000
 0 <= rxn12259_c0 <= 1000
 0 <= rxn12259_c0_reverse_66abf <= 1000
 0 <= rxn08434_c0 <= 1000
 0 <= rxn08434_c0_reverse_c9a51 <= 1000
 0 <= rxn01637_c0 <= 1000
 0 <= rxn01637_c0_reverse_b3a28 <= 1000
 0 <= rxn00966_c0 <= 1000
 0 <= rxn00966_c0_reverse_717ad <= 1000
 0 <= rxn03130_c0 <= 1000
 0 <= rxn03130_c0_reverse_c33e1 <= 1000
 0 <= rxn01603_c0 <= 1000
 0 <= rxn01603_c0_reverse_0e247 <= 1000
 0 <= rxn12358_c0 <= 1000
 0 <= rxn12358_c0_reverse_c30d7 <= 1000
 0 <= EXF_DASH_CPDIM_DASH_6112_LBRACKET_Extraorganism_RBRACKET_ <= 100
 EXF_DASH_CPDIM_DASH_6112_LBRACKET_Extraorganism_RBRACKET__reverse_73d87 = 0
 0 <= rxn03437_c0 <= 1000
 0 <= rxn03437_c0_reverse_86948 <= 1000
 0 <= rxn12458_c0 <= 1000
 0 <= rxn12458_c0_reverse_16d51 <= 1000
 0 <= EXF_DASH_CHLOROGENATE_LBRACKET_Extraorganism_RBRACKET_ <= 100
 EXF_DASH_CHLOROGENATE_LBRACKET_Extraorganism_RBRACKET__reverse_8e330 = 0
 0 <= rxn12223_c0 <= 1000
 0 <= rxn12223_c0_reverse_3a1d9 <= 1000
 0 <= rxn04954_c0 <= 1000
 0 <= rxn04954_c0_reverse_87911 <= 1000
 0 <= TRIACYLGLYCEROL_W_DASH_RXN <= 1000
 0 <= TRIACYLGLYCEROL_W_DASH_RXN_reverse_c3da0 <= 1000
 0 <= rxn12230_c0 <= 1000
 0 <= rxn12230_c0_reverse_8eed2 <= 1000
 0 <= rxn01011_c0 <= 1000
 0 <= rxn01011_c0_reverse_0f4e2 <= 1000
 0 <= rxn12256_c0 <= 1000
 0 <= rxn12256_c0_reverse_81239 <= 1000
 0 <= rxn01192_c0 <= 1000
 0 <= rxn01192_c0_reverse_012f5 <= 1000
 0 <= rxn03884_c0 <= 1000
 0 <= rxn03884_c0_reverse_82f7a <= 1000
 0 <= EXF_DASH_DEOXYINOSINE_LBRACKET_Extraorganism_RBRACKET_ <= 100
 EXF_DASH_DEOXYINOSINE_LBRACKET_Extraorganism_RBRACKET__reverse_b6071 = 0
 0 <= rxn02804_c0 <= 1000
 0 <= rxn02804_c0_reverse_0454c <= 1000
 0 <= rxn05344_c0 <= 1000
 0 <= rxn05344_c0_reverse_57982 <= 1000
 0 <= rxn00126_c0 <= 1000
 0 <= rxn00126_c0_reverse_c47fb <= 1000
 0 <= EXF_DASH_CAFFEATE_LBRACKET_Extraorganism_RBRACKET_ <= 100
 EXF_DASH_CAFFEATE_LBRACKET_Extraorganism_RBRACKET__reverse_2c84f = 0
 0 <= rxn12313_c0 <= 1000
 0 <= rxn12313_c0_reverse_56e11 <= 1000
 0 <= rxn03243_c0 <= 1000
 0 <= rxn03243_c0_reverse_6d279 <= 1000
 0 <= rxn05145_c0 <= 1000
 0 <= rxn05145_c0_reverse_604c0 <= 1000
 0 <= rxn03031_c0 <= 1000
 0 <= rxn03031_c0_reverse_c2742 <= 1000
 0 <= rxn02285_c0 <= 1000
 0 <= rxn02285_c0_reverse_5c70a <= 1000
 0 <= rxn12439_c0 <= 1000
 0 <= rxn12439_c0_reverse_98086 <= 1000
 0 <= rxn03240_c0 <= 1000
 0 <= rxn03240_c0_reverse_29d03 <= 1000
 0 <= rxn12354_c0 <= 1000
 0 <= rxn12354_c0_reverse_913b8 <= 1000
 0 <= rxn12363_c0 <= 1000
 0 <= rxn12363_c0_reverse_7cafd <= 1000
 0 <= EXF_DASH_HOMOSERINE_DASH_LACTONE_LBRACKET_Extraorganism_RBRACKET_ <= 100
 EXF_DASH_HOMOSERINE_DASH_LACTONE_LBRACKET_Extraorganism_RBRACKET__reverse_f13db = 0
 0 <= rxn00568_c0 <= 1000
 0 <= rxn00568_c0_reverse_a1c6b <= 1000
 0 <= rxn00224_c0 <= 1000
 0 <= rxn00224_c0_reverse_d0f78 <= 1000
 0 <= rxn01218_c0 <= 1000
 0 <= rxn01218_c0_reverse_a9732 <= 1000
 0 <= rxn02177_c0 <= 1000
 0 <= rxn02177_c0_reverse_3e2ec <= 1000
 0 <= rxn12437_c0 <= 1000
 0 <= rxn12437_c0_reverse_59aa2 <= 1000
 0 <= rxn00640_c0 <= 1000
 0 <= rxn00640_c0_reverse_e6d45 <= 1000
 0 <= rxn00903_c0 <= 1000
 0 <= rxn00903_c0_reverse_8c60f <= 1000
 0 <= rxn12416_c0 <= 1000
 0 <= rxn12416_c0_reverse_f9e54 <= 1000
 0 <= rxn12390_c0 <= 1000
 0 <= rxn12390_c0_reverse_103df <= 1000
 0 <= rxn02277_c0 <= 1000
 0 <= rxn02277_c0_reverse_c3e02 <= 1000
 0 <= rxn12388_c0 <= 1000
 0 <= rxn12388_c0_reverse_3e38d <= 1000
 0 <= rxn12419_c0 <= 1000
 0 <= rxn12419_c0_reverse_f7691 <= 1000
 0 <= rxn03181_c0 <= 1000
 0 <= rxn03181_c0_reverse_bb21b <= 1000
 0 <= EXF_DASH_C10_COLON_0_LBRACKET_Extraorganism_RBRACKET_ <= 100
 EXF_DASH_C10_COLON_0_LBRACKET_Extraorganism_RBRACKET__reverse_6b321 = 0
 0 <= rxn00493_c0 <= 1000
 0 <= rxn00493_c0_reverse_d7e65 <= 1000
 0 <= rxn02160_c0 <= 1000
 0 <= rxn02160_c0_reverse_d62d3 <= 1000
 0 <= rxn01545_c0 <= 1000
 0 <= rxn01545_c0_reverse_d2776 <= 1000
 0 <= rxn01360_c0 <= 1000
 0 <= rxn01360_c0_reverse_4b9bd <= 1000
 0 <= rxn00159_c0 <= 1000
 0 <= rxn00159_c0_reverse_35110 <= 1000
 0 <= rxn01465_c0 <= 1000
 0 <= rxn01465_c0_reverse_5c55f <= 1000
 0 <= rxn00834_c0 <= 1000
 0 <= rxn00834_c0_reverse_0227f <= 1000
 0 <= rxn05582_c0 <= 1000
 0 <= rxn05582_c0_reverse_52f81 <= 1000
 0 <= rxn02143_c0 <= 1000
 0 <= rxn02143_c0_reverse_9704c <= 1000
 0 <= rxn12448_c0 <= 1000
 0 <= rxn12448_c0_reverse_c3be1 <= 1000
 0 <= rxn01301_c0 <= 1000
 0 <= rxn01301_c0_reverse_0fe7f <= 1000
 0 <= rxn02107_c0 <= 1000
 0 <= rxn02107_c0_reverse_9028d <= 1000
 0 <= CYT_DASH_UBIQUINOL_DASH_OXID_DASH_D_DASH_RXN <= 1000
 0 <= CYT_DASH_UBIQUINOL_DASH_OXID_DASH_D_DASH_RXN_reverse_59fbf <= 1000
 0 <= rxn12315_c0 <= 1000
 0 <= rxn12315_c0_reverse_4ad8f <= 1000
 0 <= rxn12361_c0 <= 1000
 0 <= rxn12361_c0_reverse_35c09 <= 1000
 0 <= rxn01268_c0 <= 1000
 0 <= rxn01268_c0_reverse_76fc3 <= 1000
 0 <= rxn05039_c0 <= 1000
 0 <= rxn05039_c0_reverse_b851c <= 1000
 0 <= EXF_DASH_2_DASH_KETOGLUTARATE_LBRACKET_Extraorganism_RBRACKET_ <= 100
 EXF_DASH_2_DASH_KETOGLUTARATE_LBRACKET_Extraorganism_RBRACKET__reverse_8ed67 = 0
 0 <= EXF_DASH_OXYGEN_DASH_MOLECULE_LBRACKET_Extraorganism_RBRACKET_ <= 100
 0 <= EXF_DASH_OXYGEN_DASH_MOLECULE_LBRACKET_Extraorganism_RBRACKET__reverse_015e9 <= 10
 0 <= EXF_DASH_C6_COLON_0_LBRACKET_Extraorganism_RBRACKET_ <= 100
 EXF_DASH_C6_COLON_0_LBRACKET_Extraorganism_RBRACKET__reverse_65ba0 = 0
 0 <= rxn05342_c0 <= 1000
 0 <= rxn05342_c0_reverse_cfe2f <= 1000
 0 <= rxn01211_c0 <= 1000
 0 <= rxn01211_c0_reverse_093f7 <= 1000
 0 <= EXF_DASH_4_DASH_HYDROXY_DASH_BENZYL_DASH_ALCOHOL_LBRACKET_Extraorganism_RBRACKET_ <= 100
 EXF_DASH_4_DASH_HYDROXY_DASH_BENZYL_DASH_ALCOHOL_LBRACKET_Extraorganism_RBRACKET__reverse_fa70d = 0
 0 <= rxn00262_c0 <= 1000
 0 <= rxn00262_c0_reverse_9d1cf <= 1000
 0 <= rxn05467_c0 <= 1000
 0 <= rxn05467_c0_reverse_434a2 <= 1000
 0 <= rxn02297_c0 <= 1000
 0 <= rxn02297_c0_reverse_96fea <= 1000
 0 <= rxn00874_c0 <= 1000
 0 <= rxn00874_c0_reverse_bd4de <= 1000
 0 <= rxn04070_c0 <= 1000
 0 <= rxn04070_c0_reverse_7fa04 <= 1000
 0 <= rxn00527_c0 <= 1000
 0 <= rxn00527_c0_reverse_08f10 <= 1000
 0 <= EXF_DASH_NA_PLUS__LBRACKET_Extraorganism_RBRACKET_ <= 100
 0 <= EXF_DASH_NA_PLUS__LBRACKET_Extraorganism_RBRACKET__reverse_6a961 <= 100
 0 <= EXF_DASH_TYR_LBRACKET_Extraorganism_RBRACKET_ <= 100
 EXF_DASH_TYR_LBRACKET_Extraorganism_RBRACKET__reverse_42ae6 = 0
 0 <= rxn12340_c0 <= 1000
 0 <= rxn12340_c0_reverse_adc2f <= 1000
 0 <= rxn00549_c0 <= 1000
 0 <= rxn00549_c0_reverse_1ff19 <= 1000
 0 <= rxn01636_c0 <= 1000
 0 <= rxn01636_c0_reverse_84dff <= 1000
 0 <= rxn12450_c0 <= 1000
 0 <= rxn12450_c0_reverse_bb1f6 <= 1000
 0 <= rxn00605_c0 <= 1000
 0 <= rxn00605_c0_reverse_b010b <= 1000
 0 <= rxn12360_c0 <= 1000
 0 <= rxn12360_c0_reverse_1fdbb <= 1000
 0 <= rxn02286_c0 <= 1000
 0 <= rxn02286_c0_reverse_e7172 <= 1000
 0 <= rxn00208_c0 <= 1000
 0 <= rxn00208_c0_reverse_fda2f <= 1000
 0 <= rxn00806_c0 <= 1000
 0 <= rxn00806_c0_reverse_4d986 <= 1000
 0 <= rxn00161_c0 <= 1000
 0 <= rxn00161_c0_reverse_23eac <= 1000
 0 <= rxn00463_c0 <= 1000
 0 <= rxn00463_c0_reverse_212c5 <= 1000
 0 <= rxn12433_c0 <= 1000
 0 <= rxn12433_c0_reverse_b9993 <= 1000
 0 <= rxn12268_c0 <= 1000
 0 <= rxn12268_c0_reverse_b532f <= 1000
 0 <= EXF_DASH_INOSINE_LBRACKET_Extraorganism_RBRACKET_ <= 100
 EXF_DASH_INOSINE_LBRACKET_Extraorganism_RBRACKET__reverse_5ac38 = 0
 0 <= rxn01867_c0 <= 1000
 0 <= rxn01867_c0_reverse_ea907 <= 1000
 0 <= rxn00342_c0 <= 1000
 0 <= rxn00342_c0_reverse_235bc <= 1000
 0 <= rxn12432_c0 <= 1000
 0 <= rxn12432_c0_reverse_40ed2 <= 1000
 0 <= rxn12455_c0 <= 1000
 0 <= rxn12455_c0_reverse_9f5d1 <= 1000
 0 <= rxn00283_c0 <= 1000
 0 <= rxn00283_c0_reverse_7dba3 <= 1000
 0 <= rxn05220_c0 <= 1000
 0 <= rxn05220_c0_reverse_cb064 <= 1000
 0 <= rxn12229_c0 <= 1000
 0 <= rxn12229_c0_reverse_b8ec2 <= 1000
 0 <= rxn00206_c0 <= 1000
 0 <= rxn00206_c0_reverse_a3678 <= 1000
 0 <= rxn08173_c0 <= 1000
 0 <= rxn08173_c0_reverse_2f53a <= 1000
 0 <= rxn12343_c0 <= 1000
 0 <= rxn12343_c0_reverse_049b6 <= 1000
 0 <= rxn12326_c0 <= 1000
 0 <= rxn12326_c0_reverse_9d274 <= 1000
 0 <= TRANS_DASH_RXNIM_DASH_5771 <= 1000
 0 <= TRANS_DASH_RXNIM_DASH_5771_reverse_5f296 <= 1000
 0 <= rxn02175_c0 <= 1000
 0 <= rxn02175_c0_reverse_f2029 <= 1000
 0 <= rxn12431_c0 <= 1000
 0 <= rxn12431_c0_reverse_f3d22 <= 1000
 0 <= rxn12401_c0 <= 1000
 0 <= rxn12401_c0_reverse_39a95 <= 1000
 0 <= rxn00689_c0 <= 1000
 0 <= rxn00689_c0_reverse_da455 <= 1000
 0 <= rxn02927_c0 <= 1000
 0 <= rxn02927_c0_reverse_172ad <= 1000
 0 <= rxn00727_c0 <= 1000
 0 <= rxn00727_c0_reverse_7475f <= 1000
 0 <= rxn00001_c0 <= 1000
 0 <= rxn00001_c0_reverse_24410 <= 1000
 0 <= rxn00872_c0 <= 1000
 0 <= rxn00872_c0_reverse_5565a <= 1000
 0 <= rxn41902_c0 <= 1000
 0 <= rxn41902_c0_reverse_1375a <= 1000
 0 <= rxn02056_c0 <= 1000
 0 <= rxn02056_c0_reverse_cdee7 <= 1000
 0 <= rxn00676_c0 <= 1000
 0 <= rxn00676_c0_reverse_97437 <= 1000
 0 <= rxn12321_c0 <= 1000
 0 <= rxn12321_c0_reverse_19324 <= 1000
 0 <= rxn09177_c0 <= 1000
 0 <= rxn09177_c0_reverse_ef483 <= 1000
 0 <= rxn09167_c0 <= 1000
 0 <= rxn09167_c0_reverse_90de2 <= 1000
 0 <= rxn01255_c0 <= 1000
 0 <= rxn01255_c0_reverse_c1b6a <= 1000
 0 <= rxn05327_c0 <= 1000
 0 <= rxn05327_c0_reverse_9892a <= 1000
 0 <= rxn12263_c0 <= 1000
 0 <= rxn12263_c0_reverse_4d8db <= 1000
 0 <= rxn41196_c0 <= 1000
 0 <= rxn41196_c0_reverse_2ab9c <= 1000
 0 <= rxn12405_c0 <= 1000
 0 <= rxn12405_c0_reverse_82dd5 <= 1000
 0 <= rxn03638_c0 <= 1000
 0 <= rxn03638_c0_reverse_63c0e <= 1000
 0 <= EXF_DASH_SHIKIMATE_LBRACKET_Extraorganism_RBRACKET_ <= 100
 EXF_DASH_SHIKIMATE_LBRACKET_Extraorganism_RBRACKET__reverse_0a3ca = 0
 0 <= EXF_DASH_FORMATE_LBRACKET_Extraorganism_RBRACKET_ <= 100
 EXF_DASH_FORMATE_LBRACKET_Extraorganism_RBRACKET__reverse_84629 = 0
 0 <= rxn00674_c0 <= 1000
 0 <= rxn00674_c0_reverse_a763e <= 1000
 0 <= rxn12342_c0 <= 1000
 0 <= rxn12342_c0_reverse_be5cf <= 1000
 0 <= rxn01258_c0 <= 1000
 0 <= rxn01258_c0_reverse_27471 <= 1000
 0 <= rxn12289_c0 <= 1000
 0 <= rxn12289_c0_reverse_0df61 <= 1000
 0 <= rxn08981_c0 <= 1000
 0 <= rxn08981_c0_reverse_9dac7 <= 1000
 0 <= rxn09188_c0 <= 1000
 0 <= rxn09188_c0_reverse_a86f7 <= 1000
 0 <= rxn02895_c0 <= 1000
 0 <= rxn02895_c0_reverse_ccce2 <= 1000
 0 <= EXF_DASH_WATER_LBRACKET_Extraorganism_RBRACKET_ <= 100
 0 <= EXF_DASH_WATER_LBRACKET_Extraorganism_RBRACKET__reverse_eff50 <= 100
 0 <= rxn01989_c0 <= 1000
 0 <= rxn01989_c0_reverse_0d67b <= 1000
 0 <= rxn05602_c0 <= 1000
 0 <= rxn05602_c0_reverse_6e5a5 <= 1000
 0 <= GLYCEROL_DASH_3_DASH_P_DASH_ACYLTRANSFER_DASH_TAG_DASH_RXN <= 1000
 0 <= GLYCEROL_DASH_3_DASH_P_DASH_ACYLTRANSFER_DASH_TAG_DASH_RXN_reverse_5caf4 <= 1000
 0 <= rxn05197_c0 <= 1000
 0 <= rxn05197_c0_reverse_1fd1b <= 1000
 0 <= rxn08428_c0 <= 1000
 0 <= rxn08428_c0_reverse_7ba2b <= 1000
 0 <= rxn05470_c0 <= 1000
 0 <= rxn05470_c0_reverse_af18e <= 1000
 0 <= rxn12284_c0 <= 1000
 0 <= rxn12284_c0_reverse_53ba1 <= 1000
 0 <= rxn08999_c0 <= 1000
 0 <= rxn08999_c0_reverse_80be1 <= 1000
 0 <= rxn01226_c0 <= 1000
 0 <= rxn01226_c0_reverse_31282 <= 1000
 0 <= rxn03900_c0 <= 1000
 0 <= rxn03900_c0_reverse_81cc8 <= 1000
 0 <= rxn00839_c0 <= 1000
 0 <= rxn00839_c0_reverse_e1122 <= 1000
 0 <= rxn04996_c0 <= 1000
 0 <= rxn04996_c0_reverse_f7c7e <= 1000
 0 <= rxn03439_c0 <= 1000
 0 <= rxn03439_c0_reverse_dd2d2 <= 1000
 0 <= rxn12317_c0 <= 1000
 0 <= rxn12317_c0_reverse_f375b <= 1000
 0 <= rxn12305_c0 <= 1000
 0 <= rxn12305_c0_reverse_13a69 <= 1000
 0 <= rxn01117_c0 <= 1000
 0 <= rxn01117_c0_reverse_ed4b1 <= 1000
 0 <= rxn23789_c0 <= 1000
 0 <= rxn23789_c0_reverse_d9f36 <= 1000
 0 <= rxn00196_c0 <= 1000
 0 <= rxn00196_c0_reverse_3cc98 <= 1000
 0 <= EXF_DASH_QUINATE_LBRACKET_Extraorganism_RBRACKET_ <= 100
 EXF_DASH_QUINATE_LBRACKET_Extraorganism_RBRACKET__reverse_f8b29 = 0
 0 <= rxn12446_c0 <= 1000
 0 <= rxn12446_c0_reverse_6e6b8 <= 1000
 0 <= rxn00256_c0 <= 1000
 0 <= rxn00256_c0_reverse_b1561 <= 1000
 0 <= EXF_DASH_CPDIM_DASH_6114_LBRACKET_Extraorganism_RBRACKET_ <= 100
 EXF_DASH_CPDIM_DASH_6114_LBRACKET_Extraorganism_RBRACKET__reverse_d9924 = 0
 0 <= EXF_DASH_CPD_DASH_110_LBRACKET_Extraorganism_RBRACKET_ <= 100
 EXF_DASH_CPD_DASH_110_LBRACKET_Extraorganism_RBRACKET__reverse_8060e = 0
 0 <= EXF_DASH_C6_COLON_2_LPAREN_C2_COMMA_C4_RPAREN__LBRACKET_Extraorganism_RBRACKET_ <= 100
 EXF_DASH_C6_COLON_2_LPAREN_C2_COMMA_C4_RPAREN__LBRACKET_Extraorganism_RBRACKET__reverse_2bb3f = 0
 0 <= rxn00588_c0 <= 1000
 0 <= rxn00588_c0_reverse_90f98 <= 1000
 0 <= rxn12371_c0 <= 1000
 0 <= rxn12371_c0_reverse_a7a4a <= 1000
 0 <= rxn03164_c0 <= 1000
 0 <= rxn03164_c0_reverse_fd17f <= 1000
 0 <= EXF_DASH_MALONATE_LBRACKET_Extraorganism_RBRACKET_ <= 100
 EXF_DASH_MALONATE_LBRACKET_Extraorganism_RBRACKET__reverse_7d2cb = 0
 0 <= rxn03893_c0 <= 1000
 0 <= rxn03893_c0_reverse_f6334 <= 1000
 0 <= rxn00420_c0 <= 1000
 0 <= rxn00420_c0_reverse_c9664 <= 1000
 0 <= rxn12449_c0 <= 1000
 0 <= rxn12449_c0_reverse_f714a <= 1000
 0 <= rxn00213_c0 <= 1000
 0 <= rxn00213_c0_reverse_0365f <= 1000
 0 <= rxn03061_c0 <= 1000
 0 <= rxn03061_c0_reverse_4fa8d <= 1000
 0 <= rxn01213_c0 <= 1000
 0 <= rxn01213_c0_reverse_698a2 <= 1000
 0 <= rxn02149_c0 <= 1000
 0 <= rxn02149_c0_reverse_b28f8 <= 1000
 0 <= EXF_DASH_SO3_LBRACKET_Extraorganism_RBRACKET_ <= 100
 EXF_DASH_SO3_LBRACKET_Extraorganism_RBRACKET__reverse_d531f = 0
 0 <= rxn05347_c0 <= 1000
 0 <= rxn05347_c0_reverse_39a4c <= 1000
 0 <= rxn12459_c0 <= 1000
 0 <= rxn12459_c0_reverse_9015e <= 1000
 0 <= rxn03241_c0 <= 1000
 0 <= rxn03241_c0_reverse_44fc5 <= 1000
 0 <= rxn00006_c0 <= 1000
 0 <= rxn00006_c0_reverse_a6194 <= 1000
 0 <= rxn02402_c0 <= 1000
 0 <= rxn02402_c0_reverse_d4532 <= 1000
 0 <= rxn01973_c0 <= 1000
 0 <= rxn01973_c0_reverse_613ad <= 1000
 0 <= x_779 <= 1000
 0 <= x_780 <= 1000
 0 <= EXF_DASH_ETHANESULFONATE_LBRACKET_Extraorganism_RBRACKET_ <= 100
 EXF_DASH_ETHANESULFONATE_LBRACKET_Extraorganism_RBRACKET__reverse_b3ddd = 0
 0 <= EXF_DASH_DEOXYGUANOSINE_LBRACKET_Extraorganism_RBRACKET_ <= 100
 EXF_DASH_DEOXYGUANOSINE_LBRACKET_Extraorganism_RBRACKET__reverse_42dcd = 0
 0 <= EXF_DASH_D_DASH_GLUCARATE_LBRACKET_Extraorganism_RBRACKET_ <= 10
 0 <= EXF_DASH_D_DASH_GLUCARATE_LBRACKET_Extraorganism_RBRACKET__reverse_f139e <= 100
 0 <= rxn00558_c0 <= 1000
 0 <= rxn00558_c0_reverse_c4809 <= 1000
 0 <= rxn10092_c0 <= 1000
 0 <= rxn10092_c0_reverse_5e6d7 <= 1000
 0 <= rxn02929_c0 <= 1000
 0 <= rxn02929_c0_reverse_c7e84 <= 1000
 0 <= rxn02159_c0 <= 1000
 0 <= rxn02159_c0_reverse_80539 <= 1000
 0 <= rxn03175_c0 <= 1000
 0 <= rxn03175_c0_reverse_1e81a <= 1000
 0 <= rxn01466_c0 <= 1000
 0 <= rxn01466_c0_reverse_6b2ec <= 1000
 0 <= EXF_DASH_L_DASH_ASPARTATE_LBRACKET_Extraorganism_RBRACKET_ <= 100
 EXF_DASH_L_DASH_ASPARTATE_LBRACKET_Extraorganism_RBRACKET__reverse_ed12b = 0
 0 <= rxn12392_c0 <= 1000
 0 <= rxn12392_c0_reverse_691de <= 1000
 0 <= rxn09449_c0 <= 1000
 0 <= rxn09449_c0_reverse_0b61b <= 1000
 0 <= rxn01333_c0 <= 1000
 0 <= rxn01333_c0_reverse_15140 <= 1000
 0 <= rxn00717_c0 <= 1000
 0 <= rxn00717_c0_reverse_0af42 <= 1000
 0 <= rxn08795_c0 <= 1000
 0 <= rxn08795_c0_reverse_7c068 <= 1000
 0 <= rxn02474_c0 <= 1000
 0 <= rxn02474_c0_reverse_881e6 <= 1000
 0 <= rxn01102_c0 <= 1000
 0 <= rxn01102_c0_reverse_e553b <= 1000
 0 <= rxn02789_c0 <= 1000
 0 <= rxn02789_c0_reverse_b334b <= 1000
 0 <= rxn12420_c0 <= 1000
 0 <= rxn12420_c0_reverse_326bd <= 1000
 0 <= rxn06777_c0 <= 1000
 0 <= rxn06777_c0_reverse_50cd7 <= 1000
 0 <= rxn12324_c0 <= 1000
 0 <= rxn12324_c0_reverse_29839 <= 1000
 0 <= rxn05468_c0 <= 1000
 0 <= rxn05468_c0_reverse_64ab5 <= 1000
 0 <= rxn01018_c0 <= 1000
 0 <= rxn01018_c0_reverse_7ccc7 <= 1000
 0 <= rxn12329_c0 <= 1000
 0 <= rxn12329_c0_reverse_80a40 <= 1000
 0 <= rxn00952_c0 <= 1000
 0 <= rxn00952_c0_reverse_3ef6d <= 1000
 0 <= rxn00285_c0 <= 1000
 0 <= rxn00285_c0_reverse_5970f <= 1000
 0 <= rxn00790_c0 <= 1000
 0 <= rxn00790_c0_reverse_86aeb <= 1000
 0 <= EXF_DASH_ADENOSINE_LBRACKET_Extraorganism_RBRACKET_ <= 100
 EXF_DASH_ADENOSINE_LBRACKET_Extraorganism_RBRACKET__reverse_e9643 = 0
 0 <= rxn08063_c0 <= 1000
 0 <= rxn08063_c0_reverse_6fc96 <= 1000
 0 <= rxn06139_c0 <= 1000
 0 <= rxn06139_c0_reverse_dfa8c <= 1000
 0 <= rxn12456_c0 <= 1000
 0 <= rxn12456_c0_reverse_c6965 <= 1000
 0 <= rxn04752_c0 <= 1000
 0 <= rxn04752_c0_reverse_3bf35 <= 1000
 0 <= rxn00048_c0 <= 1000
 0 <= rxn00048_c0_reverse_70384 <= 1000
 0 <= rxn02369_c0 <= 1000
 0 <= rxn02369_c0_reverse_90ecc <= 1000
 0 <= rxn02507_c0 <= 1000
 0 <= rxn02507_c0_reverse_414b4 <= 1000
 0 <= rxn12304_c0 <= 1000
 0 <= rxn12304_c0_reverse_0c0d8 <= 1000
 0 <= rxn00260_c0 <= 1000
 0 <= rxn00260_c0_reverse_b9076 <= 1000
 0 <= rxn02201_c0 <= 1000
 0 <= rxn02201_c0_reverse_551c1 <= 1000
 0 <= rxn09193_c0 <= 1000
 0 <= rxn09193_c0_reverse_0061d <= 1000
 0 <= EXF_DASH_CPD_DASH_148_LBRACKET_Extraorganism_RBRACKET_ <= 100
 EXF_DASH_CPD_DASH_148_LBRACKET_Extraorganism_RBRACKET__reverse_2a07d = 0
 0 <= rxn00772_c0 <= 1000
 0 <= rxn00772_c0_reverse_4e4e9 <= 1000
 0 <= rxn05581_c0 <= 1000
 0 <= rxn05581_c0_reverse_26e3b <= 1000
 0 <= rxn12349_c0 <= 1000
 0 <= rxn12349_c0_reverse_44e0f <= 1000
 0 <= rxn12428_c0 <= 1000
 0 <= rxn12428_c0_reverse_d9987 <= 1000
 0 <= rxn08373_c0 <= 1000
 0 <= rxn08373_c0_reverse_c25dd <= 1000
 0 <= rxn08302_c0 <= 1000
 0 <= rxn08302_c0_reverse_051d3 <= 1000
 0 <= rxn12383_c0 <= 1000
 0 <= rxn12383_c0_reverse_edddb <= 1000
 0 <= rxn11322_c0 <= 1000
 0 <= rxn11322_c0_reverse_3c843 <= 1000
 0 <= EXF_DASH_CIS_DASH_CIS_DASH_MUCONATE_LBRACKET_Extraorganism_RBRACKET_ <= 100
 EXF_DASH_CIS_DASH_CIS_DASH_MUCONATE_LBRACKET_Extraorganism_RBRACKET__reverse_f9a37 = 0
 0 <= rxn05465_c0 <= 1000
 0 <= rxn05465_c0_reverse_93e79 <= 1000
 0 <= EXF_DASH_CPDIM_DASH_6115_LBRACKET_Extraorganism_RBRACKET_ <= 100
 EXF_DASH_CPDIM_DASH_6115_LBRACKET_Extraorganism_RBRACKET__reverse_1a652 = 0
 0 <= rxn08444_c0 <= 1000
 0 <= rxn08444_c0_reverse_f6c59 <= 1000
 0 <= rxn12306_c0 <= 1000
 0 <= rxn12306_c0_reverse_01ca5 <= 1000
 0 <= EXF_DASH_ACET_LBRACKET_Extraorganism_RBRACKET_ <= 100
 EXF_DASH_ACET_LBRACKET_Extraorganism_RBRACKET__reverse_ce00d = 0
 0 <= rxn00838_c0 <= 1000
 0 <= rxn00838_c0_reverse_57617 <= 1000
 0 <= EXF_DASH_3_DASH_KETOBUTYRATE_LBRACKET_Extraorganism_RBRACKET_ <= 100
 EXF_DASH_3_DASH_KETOBUTYRATE_LBRACKET_Extraorganism_RBRACKET__reverse_ec77e = 0
 0 <= rxn05331_c0 <= 1000
 0 <= rxn05331_c0_reverse_69940 <= 1000
 0 <= rxn00786_c0 <= 1000
 0 <= rxn00786_c0_reverse_4b362 <= 1000
 0 <= rxn08653_c0 <= 1000
 0 <= rxn08653_c0_reverse_99b7d <= 1000
 0 <= rxn00237_c0 <= 1000
 0 <= rxn00237_c0_reverse_4cdeb <= 1000
 0 <= rxn03909_c0 <= 1000
 0 <= rxn03909_c0_reverse_ae095 <= 1000
 0 <= rxn06076_c0 <= 1000
 0 <= rxn06076_c0_reverse_25cbd <= 1000
 0 <= rxn12386_c0 <= 1000
 0 <= rxn12386_c0_reverse_95c5d <= 1000
 0 <= rxn08639_c0 <= 1000
 0 <= rxn08639_c0_reverse_7f130 <= 1000
 0 <= rxn03004_c0 <= 1000
 0 <= rxn03004_c0_reverse_1e556 <= 1000
 0 <= rxn46689_c0 <= 1000
 0 <= rxn46689_c0_reverse_10181 <= 1000
 0 <= rxn12233_c0 <= 1000
 0 <= rxn12233_c0_reverse_9273a <= 1000
 0 <= rxn01225_c0 <= 1000
 0 <= rxn01225_c0_reverse_52863 <= 1000
 0 <= rxn00002_c0 <= 1000
 0 <= rxn00002_c0_reverse_34776 <= 1000
 0 <= rxn12335_c0 <= 1000
 0 <= rxn12335_c0_reverse_6be8f <= 1000
 0 <= rxn12269_c0 <= 1000
 0 <= rxn12269_c0_reverse_aa973 <= 1000
 0 <= rxn00348_c0 <= 1000
 0 <= rxn00348_c0_reverse_880c0 <= 1000
 0 <= rxn20583_c0 <= 1000
 0 <= rxn20583_c0_reverse_0e0c6 <= 1000
 0 <= rxn00141_c0 <= 1000
 0 <= rxn00141_c0_reverse_d1d0b <= 1000
 0 <= rxn00836_c0 <= 1000
 0 <= rxn00836_c0_reverse_48e4c <= 1000
 0 <= rxn09172_c0 <= 1000
 0 <= rxn09172_c0_reverse_f3fe3 <= 1000
 0 <= rxn12427_c0 <= 1000
 0 <= rxn12427_c0_reverse_ea9d3 <= 1000
 0 <= rxn00875_c0 <= 1000
 0 <= rxn00875_c0_reverse_62069 <= 1000
 0 <= TRANS_DASH_RXNIM_DASH_5895 <= 1000
 0 <= TRANS_DASH_RXNIM_DASH_5895_reverse_e3ee2 <= 1000
 0 <= rxn12264_c0 <= 1000
 0 <= rxn12264_c0_reverse_3cc11 <= 1000
 0 <= rxn00346_c0 <= 1000
 0 <= rxn00346_c0_reverse_1d180 <= 1000
 0 <= rxn09218_c0 <= 1000
 0 <= rxn09218_c0_reverse_86a26 <= 1000
 0 <= rxn09310_c0 <= 1000
 0 <= rxn09310_c0_reverse_1afad <= 1000
 0 <= rxn40608_c0 <= 1000
 0 <= rxn40608_c0_reverse_36c97 <= 1000
 0 <= rxn12394_c0 <= 1000
 0 <= rxn12394_c0_reverse_e3df9 <= 1000
 0 <= rxn12403_c0 <= 1000
 0 <= rxn12403_c0_reverse_d30dd <= 1000
 0 <= rxn01509_c0 <= 1000
 0 <= rxn01509_c0_reverse_c18be <= 1000
 0 <= rxn00686_c0 <= 1000
 0 <= rxn00686_c0_reverse_06367 <= 1000
 0 <= rxn12504_c0 <= 1000
 0 <= rxn12504_c0_reverse_8dd4d <= 1000
 0 <= EXF_DASH_NITRITE_LBRACKET_Extraorganism_RBRACKET_ <= 100
 EXF_DASH_NITRITE_LBRACKET_Extraorganism_RBRACKET__reverse_6e6f1 = 0
 0 <= rxn01964_c0 <= 1000
 0 <= rxn01964_c0_reverse_9ec1a <= 1000
 0 <= rxn47732_c0 <= 1000
 0 <= rxn47732_c0_reverse_706b4 <= 1000
 0 <= rxn02939_c0 <= 1000
 0 <= rxn02939_c0_reverse_b8d87 <= 1000
 0 <= rxn00915_c0 <= 1000
 0 <= rxn00915_c0_reverse_c94c3 <= 1000
 0 <= rxn01575_c0 <= 1000
 0 <= rxn01575_c0_reverse_06d3d <= 1000
 0 <= rxn01365_c0 <= 1000
 0 <= rxn01365_c0_reverse_de8be <= 1000
 0 <= rxn00831_c0 <= 1000
 0 <= rxn00831_c0_reverse_384c0 <= 1000
 0 <= rxn02680_c0 <= 1000
 0 <= rxn02680_c0_reverse_2a6a3 <= 1000
 0 <= rxn02937_c0 <= 1000
 0 <= rxn02937_c0_reverse_ee6a2 <= 1000
 0 <= rxn03248_c0 <= 1000
 0 <= rxn03248_c0_reverse_63873 <= 1000
 0 <= TRANS_DASH_RXN_DASH_MALONATE <= 1000
 0 <= TRANS_DASH_RXN_DASH_MALONATE_reverse_c3dc2 <= 1000
 0 <= rxn09453_c0 <= 1000
 0 <= rxn09453_c0_reverse_59a33 <= 1000
 0 <= rxn41927_c0 <= 1000
 0 <= rxn41927_c0_reverse_ced6b <= 1000
 0 <= rxn06442_c0 <= 1000
 0 <= rxn06442_c0_reverse_c8767 <= 1000
 0 <= rxn05289_c0 <= 1000
 0 <= rxn05289_c0_reverse_06e74 <= 1000
 0 <= rxn03880_c0 <= 1000
 0 <= rxn03880_c0_reverse_1abce <= 1000
 0 <= EXF_DASH_LYS_LBRACKET_Extraorganism_RBRACKET_ <= 100
 EXF_DASH_LYS_LBRACKET_Extraorganism_RBRACKET__reverse_71822 = 0
 0 <= rxn08447_c0 <= 1000
 0 <= rxn08447_c0_reverse_8d4c6 <= 1000
 0 <= rxn03617_c0 <= 1000
 0 <= rxn03617_c0_reverse_69746 <= 1000
 0 <= rxn00289_c0 <= 1000
 0 <= rxn00289_c0_reverse_589d3 <= 1000
 0 <= rxn06033_c0 <= 1000
 0 <= rxn06033_c0_reverse_b392c <= 1000
 0 <= rxn12291_c0 <= 1000
 0 <= rxn12291_c0_reverse_34bce <= 1000
 0 <= rxn01388_c0 <= 1000
 0 <= rxn01388_c0_reverse_67d04 <= 1000
 0 <= rxn00789_c0 <= 1000
 0 <= rxn00789_c0_reverse_0ebce <= 1000
 0 <= rxn01277_c0 <= 1000
 0 <= rxn01277_c0_reverse_88251 <= 1000
 0 <= EXF_DASH_SUC_LBRACKET_Extraorganism_RBRACKET_ <= 100
 EXF_DASH_SUC_LBRACKET_Extraorganism_RBRACKET__reverse_3c57a = 0
 0 <= rxn12287_c0 <= 1000
 0 <= rxn12287_c0_reverse_c5869 <= 1000
 0 <= rxn05005_c0 <= 1000
 0 <= rxn05005_c0_reverse_b93fa <= 1000
 0 <= rxn01137_c0 <= 1000
 0 <= rxn01137_c0_reverse_8e794 <= 1000
 0 <= rxn12311_c0 <= 1000
 0 <= rxn12311_c0_reverse_8c971 <= 1000
 0 <= rxn00691_c0 <= 1000
 0 <= rxn00691_c0_reverse_a2583 <= 1000
 0 <= rxn04113_c0 <= 1000
 0 <= rxn04113_c0_reverse_d915b <= 1000
 0 <= EXF_DASH_C8_COLON_0_LBRACKET_Extraorganism_RBRACKET_ <= 100
 EXF_DASH_C8_COLON_0_LBRACKET_Extraorganism_RBRACKET__reverse_7bb09 = 0
 0 <= rxn12206_c0 <= 1000
 0 <= rxn12206_c0_reverse_c1e99 <= 1000
 0 <= rxn01222_c0 <= 1000
 0 <= rxn01222_c0_reverse_e7a5c <= 1000
 0 <= rxn47838_c0 <= 1000
 0 <= rxn47838_c0_reverse_a4405 <= 1000
 0 <= rxn00559_c0 <= 1000
 0 <= rxn00559_c0_reverse_7422a <= 1000
 0 <= TRANS_DASH_RXNIM_DASH_5803 <= 1000
 0 <= TRANS_DASH_RXNIM_DASH_5803_reverse_80e3e <= 1000
 0 <= rxn01672_c0 <= 1000
 0 <= rxn01672_c0_reverse_36a9f <= 1000
 0 <= rxn12281_c0 <= 1000
 0 <= rxn12281_c0_reverse_43b2b <= 1000
 0 <= EXF_DASH_TAURINE_LBRACKET_Extraorganism_RBRACKET_ <= 100
 EXF_DASH_TAURINE_LBRACKET_Extraorganism_RBRACKET__reverse_7343a = 0
 0 <= rxn00777_c0 <= 1000
 0 <= rxn00777_c0_reverse_4ab24 <= 1000
 0 <= rxn01544_c0 <= 1000
 0 <= rxn01544_c0_reverse_f6321 <= 1000
 0 <= rxn00239_c0 <= 1000
 0 <= rxn00239_c0_reverse_3a5f6 <= 1000
 0 <= rxn02144_c0 <= 1000
 0 <= rxn02144_c0_reverse_2881f <= 1000
 0 <= EXF_DASH_VANILLATE_LBRACKET_Extraorganism_RBRACKET_ <= 100
 EXF_DASH_VANILLATE_LBRACKET_Extraorganism_RBRACKET__reverse_5b971 = 0
 0 <= rxn00105_c0 <= 1000
 0 <= rxn00105_c0_reverse_b71d3 <= 1000
 0 <= rxn00832_c0 <= 1000
 0 <= rxn00832_c0_reverse_d8a09 <= 1000
 0 <= rxn05579_c0 <= 1000
 0 <= rxn05579_c0_reverse_68d0c <= 1000
 0 <= UNBAL_DASH_PROTON <= 1000
 0 <= UNBAL_DASH_PROTON_reverse_77ce3 <= 1000
 0 <= EXF_DASH_ADIPATE_LBRACKET_Extraorganism_RBRACKET_ <= 100
 EXF_DASH_ADIPATE_LBRACKET_Extraorganism_RBRACKET__reverse_ce796 = 0
 0 <= rxn12325_c0 <= 1000
 0 <= rxn12325_c0_reverse_d615b <= 1000
 0 <= EXF_DASH_GLT_LBRACKET_Extraorganism_RBRACKET_ <= 100
 EXF_DASH_GLT_LBRACKET_Extraorganism_RBRACKET__reverse_bdf23 = 0
 0 <= EXF_DASH_GLYCOLLATE_LBRACKET_Extraorganism_RBRACKET_ <= 100
 EXF_DASH_GLYCOLLATE_LBRACKET_Extraorganism_RBRACKET__reverse_7299f = 0
 0 <= rxn03408_c0 <= 1000
 0 <= rxn03408_c0_reverse_f4fb2 <= 1000
 0 <= rxn00119_c0 <= 1000
 0 <= rxn00119_c0_reverse_29188 <= 1000
 0 <= EXF_DASH_URIDINE_LBRACKET_Extraorganism_RBRACKET_ <= 100
 EXF_DASH_URIDINE_LBRACKET_Extraorganism_RBRACKET__reverse_89f39 = 0
 0 <= rxn12454_c0 <= 1000
 0 <= rxn12454_c0_reverse_41c6b <= 1000
 0 <= EXF_DASH_SULFATE_LBRACKET_Extraorganism_RBRACKET_ <= 100
 0 <= EXF_DASH_SULFATE_LBRACKET_Extraorganism_RBRACKET__reverse_89425 <= 100
 0 <= rxn00097_c0 <= 1000
 0 <= rxn00097_c0_reverse_84522 <= 1000
 0 <= rxn02803_c0 <= 1000
 0 <= rxn02803_c0_reverse_c1dd1 <= 1000
 0 <= rxn00800_c0 <= 1000
 0 <= rxn00800_c0_reverse_a2a4d <= 1000
 0 <= EXF_DASH_THR_LBRACKET_Extraorganism_RBRACKET_ <= 100
 EXF_DASH_THR_LBRACKET_Extraorganism_RBRACKET__reverse_9bcc9 = 0
 0 <= rxn00102_c0 <= 1000
 0 <= rxn00102_c0_reverse_7b86e <= 1000
 0 <= rxn02373_c0 <= 1000
 0 <= rxn02373_c0_reverse_5567a <= 1000
 0 <= rxn03901_c0 <= 1000
 0 <= rxn03901_c0_reverse_d694e <= 1000
 0 <= rxn02465_c0 <= 1000
 0 <= rxn02465_c0_reverse_3e5e6 <= 1000
 0 <= rxn00974_c0 <= 1000
 0 <= rxn00974_c0_reverse_d835d <= 1000
 0 <= rxn12246_c0 <= 1000
 0 <= rxn12246_c0_reverse_8216b <= 1000
 0 <= rxn12267_c0 <= 1000
 0 <= rxn12267_c0_reverse_250c9 <= 1000
 0 <= rxn00638_c0 <= 1000
 0 <= rxn00638_c0_reverse_998e3 <= 1000
 0 <= rxn12234_c0 <= 1000
 0 <= rxn12234_c0_reverse_f0c78 <= 1000
 0 <= rxn01513_c0 <= 1000
 0 <= rxn01513_c0_reverse_0ef59 <= 1000
 0 <= rxn01100_c0 <= 1000
 0 <= rxn01100_c0_reverse_2daa7 <= 1000
 0 <= rxn00351_c0 <= 1000
 0 <= rxn00351_c0_reverse_cfbb1 <= 1000
 0 <= rxn12389_c0 <= 1000
 0 <= rxn12389_c0_reverse_cb452 <= 1000
 0 <= rxn00533_c0 <= 1000
 0 <= rxn00533_c0_reverse_dfaec <= 1000
 0 <= rxn08792_c0 <= 1000
 0 <= rxn08792_c0_reverse_a4e55 <= 1000
 0 <= rxn02835_c0 <= 1000
 0 <= rxn02835_c0_reverse_7eeed <= 1000
 0 <= rxn03866_c0 <= 1000
 0 <= rxn03866_c0_reverse_9131f <= 1000
 0 <= rxn05337_c0 <= 1000
 0 <= rxn05337_c0_reverse_c9ff5 <= 1000
 0 <= rxn44277_c0 <= 1000
 0 <= rxn44277_c0_reverse_f6ffe <= 1000
 0 <= rxn02341_c0 <= 1000
 0 <= rxn02341_c0_reverse_1a6f7 <= 1000
 0 <= rxn03247_c0 <= 1000
 0 <= rxn03247_c0_reverse_39359 <= 1000
 0 <= rxn12318_c0 <= 1000
 0 <= rxn12318_c0_reverse_497ba <= 1000
 0 <= rxn01000_c0 <= 1000
 0 <= rxn01000_c0_reverse_3c355 <= 1000
 0 <= rxn08096_c0 <= 1000
 0 <= rxn08096_c0_reverse_5801f <= 1000
 0 <= rxn12434_c0 <= 1000
 0 <= rxn12434_c0_reverse_094a5 <= 1000
 0 <= rxn05319_c0 <= 1000
 0 <= rxn05319_c0_reverse_b72db <= 1000
 0 <= rxn01332_c0 <= 1000
 0 <= rxn01332_c0_reverse_f9f28 <= 1000
 0 <= rxn02679_c0 <= 1000
 0 <= rxn02679_c0_reverse_bdea5 <= 1000
 0 <= rxn12444_c0 <= 1000
 0 <= rxn12444_c0_reverse_796b0 <= 1000
 0 <= rxn00412_c0 <= 1000
 0 <= rxn00412_c0_reverse_f611b <= 1000
 0 <= rxn05325_c0 <= 1000
 0 <= rxn05325_c0_reverse_f2da0 <= 1000
 0 <= rxn12457_c0 <= 1000
 0 <= rxn12457_c0_reverse_2a98f <= 1000
 0 <= rxn05348_c0 <= 1000
 0 <= rxn05348_c0_reverse_b4227 <= 1000
 0 <= rxn12451_c0 <= 1000
 0 <= rxn12451_c0_reverse_36d10 <= 1000
 0 <= rxn00902_c0 <= 1000
 0 <= rxn00902_c0_reverse_e672c <= 1000
 0 <= rxn00336_c0 <= 1000
 0 <= rxn00336_c0_reverse_aa1a4 <= 1000
 0 <= rxn00248_c0 <= 1000
 0 <= rxn00248_c0_reverse_0818d <= 1000
 0 <= rxn00584_c0 <= 1000
 0 <= rxn00584_c0_reverse_9c4c5 <= 1000
 0 <= rxn12423_c0 <= 1000
 0 <= rxn12423_c0_reverse_3cbbf <= 1000
 0 <= rxn00543_c0 <= 1000
 0 <= rxn00543_c0_reverse_df82d <= 1000
 0 <= rxn12400_c0 <= 1000
 0 <= rxn12400_c0_reverse_20d36 <= 1000
 0 <= rxn05146_c0 <= 1000
 0 <= rxn05146_c0_reverse_e327d <= 1000
 0 <= rxn48506_c0 <= 1000
 0 <= rxn48506_c0_reverse_07d35 <= 1000
 0 <= rxn12328_c0 <= 1000
 0 <= rxn12328_c0_reverse_4038d <= 1000
 0 <= rxn05233_c0 <= 1000
 0 <= rxn05233_c0_reverse_e7700 <= 1000
 0 <= rxn08614_c0 <= 1000
 0 <= rxn08614_c0_reverse_bda47 <= 1000
 0 <= EXF_DASH_UREA_LBRACKET_Extraorganism_RBRACKET_ <= 100
 EXF_DASH_UREA_LBRACKET_Extraorganism_RBRACKET__reverse_ce395 = 0
 0 <= EXF_DASH_ETOH_LBRACKET_Extraorganism_RBRACKET_ <= 100
 EXF_DASH_ETOH_LBRACKET_Extraorganism_RBRACKET__reverse_3ee52 = 0
 0 <= rxn03062_c0 <= 1000
 0 <= rxn03062_c0_reverse_a5bc7 <= 1000
 0 <= rxn00863_c0 <= 1000
 0 <= rxn00863_c0_reverse_45538 <= 1000
 0 <= rxn05332_c0 <= 1000
 0 <= rxn05332_c0_reverse_138b1 <= 1000
 0 <= EXF_DASH_THYMIDINE_LBRACKET_Extraorganism_RBRACKET_ <= 100
 EXF_DASH_THYMIDINE_LBRACKET_Extraorganism_RBRACKET__reverse_f9628 = 0
 0 <= rxn00791_c0 <= 1000
 0 <= rxn00791_c0_reverse_c2912 <= 1000
 0 <= rxn03147_c0 <= 1000
 0 <= rxn03147_c0_reverse_e6fe4 <= 1000
 0 <= rxn01094_c0 <= 1000
 0 <= rxn01094_c0_reverse_846cb <= 1000
 0 <= rxn12351_c0 <= 1000
 0 <= rxn12351_c0_reverse_0d460 <= 1000
 0 <= rxn09042_c0 <= 1000
 0 <= rxn09042_c0_reverse_0d1fb <= 1000
 0 <= rxn08525_c0 <= 1000
 0 <= rxn08525_c0_reverse_2469b <= 1000
 0 <= rxn00985_c0 <= 1000
 0 <= rxn00985_c0_reverse_5537f <= 1000
 0 <= rxn05735_c0 <= 1000
 0 <= rxn05735_c0_reverse_f8529 <= 1000
 0 <= rxn02720_c0 <= 1000
 0 <= rxn02720_c0_reverse_8aa9d <= 1000
 0 <= rxn05298_c0 <= 1000
 0 <= rxn05298_c0_reverse_0b121 <= 1000
 0 <= rxn01521_c0 <= 1000
 0 <= rxn01521_c0_reverse_faebb <= 1000
 0 <= rxn02782_c0 <= 1000
 0 <= rxn02782_c0_reverse_04e98 <= 1000
 0 <= EXF_DASH_C12_COLON_0_LBRACKET_Extraorganism_RBRACKET_ <= 100
 EXF_DASH_C12_COLON_0_LBRACKET_Extraorganism_RBRACKET__reverse_6d87a = 0
 0 <= EXF_DASH_CPD_DASH_6501_LBRACKET_Extraorganism_RBRACKET_ <= 100
 EXF_DASH_CPD_DASH_6501_LBRACKET_Extraorganism_RBRACKET__reverse_b2467 = 0
 0 <= rxn06138_c0 <= 1000
 0 <= rxn06138_c0_reverse_460eb <= 1000
 0 <= rxn00623_c0 <= 1000
 0 <= rxn00623_c0_reverse_f1142 <= 1000
 0 <= rxn00938_c0 <= 1000
 0 <= rxn00938_c0_reverse_e1115 <= 1000
 0 <= rxn12250_c0 <= 1000
 0 <= rxn12250_c0_reverse_cbb57 <= 1000
 0 <= rxn08556_c0 <= 1000
 0 <= rxn08556_c0_reverse_cd61c <= 1000
 0 <= rxn12425_c0 <= 1000
 0 <= rxn12425_c0_reverse_e5b69 <= 1000
 0 <= rxn09452_c0 <= 1000
 0 <= rxn09452_c0_reverse_d1ec4 <= 1000
 0 <= rxn00776_c0 <= 1000
 0 <= rxn00776_c0_reverse_bfadd <= 1000
 0 <= rxn01740_c0 <= 1000
 0 <= rxn01740_c0_reverse_22752 <= 1000
 0 <= rxn01961_c0 <= 1000
 0 <= rxn01961_c0_reverse_03538 <= 1000
 0 <= rxn12276_c0 <= 1000
 0 <= rxn12276_c0_reverse_4b77d <= 1000
 0 <= rxn02405_c0 <= 1000
 0 <= rxn02405_c0_reverse_c0fb5 <= 1000
 0 <= rxn12319_c0 <= 1000
 0 <= rxn12319_c0_reverse_37c95 <= 1000
 0 <= rxn00225_c0 <= 1000
 0 <= rxn00225_c0_reverse_bc53a <= 1000
 0 <= rxn01512_c0 <= 1000
 0 <= rxn01512_c0_reverse_5d6a2 <= 1000
 0 <= rxn20526_c0 <= 1000
 0 <= rxn20526_c0_reverse_6eb70 <= 1000
 0 <= rxn12248_c0 <= 1000
 0 <= rxn12248_c0_reverse_bd733 <= 1000
 0 <= rxn03242_c0 <= 1000
 0 <= rxn03242_c0_reverse_47203 <= 1000
 0 <= rxn00173_c0 <= 1000
 0 <= rxn00173_c0_reverse_21844 <= 1000
 0 <= rxn00337_c0 <= 1000
 0 <= rxn00337_c0_reverse_8318a <= 1000
 0 <= rxn08441_c0 <= 1000
 0 <= rxn08441_c0_reverse_2611c <= 1000
 0 <= rxn05115_c0 <= 1000
 0 <= rxn05115_c0_reverse_952d3 <= 1000
 0 <= rxn00993_c0 <= 1000
 0 <= rxn00993_c0_reverse_f3858 <= 1000
 0 <= rxn03239_c0 <= 1000
 0 <= rxn03239_c0_reverse_e8516 <= 1000
 0 <= rxn03173_c0 <= 1000
 0 <= rxn03173_c0_reverse_e93ab <= 1000
 0 <= x_1269 <= 1000
 0 <= x_1270 <= 1000
 0 <= rxn05336_c0 <= 1000
 0 <= rxn05336_c0_reverse_6ca64 <= 1000
 0 <= rxn12344_c0 <= 1000
 0 <= rxn12344_c0_reverse_75205 <= 1000
 0 <= rxn03075_c0 <= 1000
 0 <= rxn03075_c0_reverse_5ebcd <= 1000
 0 <= rxn12413_c0 <= 1000
 0 <= rxn12413_c0_reverse_eb58f <= 1000
 0 <= rxn12327_c0 <= 1000
 0 <= rxn12327_c0_reverse_860a9 <= 1000
 0 <= rxn02404_c0 <= 1000
 0 <= rxn02404_c0_reverse_cb0b0 <= 1000
 0 <= rxn03251_c0 <= 1000
 0 <= rxn03251_c0_reverse_f2f8c <= 1000
 0 <= rxn08610_c0 <= 1000
 0 <= rxn08610_c0_reverse_534ac <= 1000
 0 <= rxn00693_c0 <= 1000
 0 <= rxn00693_c0_reverse_80a8c <= 1000
 0 <= rxn01107_c0 <= 1000
 0 <= rxn01107_c0_reverse_62e5d <= 1000
 0 <= rxn05215_c0 <= 1000
 0 <= rxn05215_c0_reverse_6ef11 <= 1000
 0 <= rxn00459_c0 <= 1000
 0 <= rxn00459_c0_reverse_7f5be <= 1000
 0 <= rxn12242_c0 <= 1000
 0 <= rxn12242_c0_reverse_4d875 <= 1000
 0 <= rxn01462_c0 <= 1000
 0 <= rxn01462_c0_reverse_51a4a <= 1000
 0 <= rxn12237_c0 <= 1000
 0 <= rxn12237_c0_reverse_4ea7c <= 1000
 0 <= rxn12273_c0 <= 1000
 0 <= rxn12273_c0_reverse_94bf0 <= 1000
 0 <= rxn00086_c0 <= 1000
 0 <= rxn00086_c0_reverse_3a823 <= 1000
 0 <= rxn12374_c0 <= 1000
 0 <= rxn12374_c0_reverse_4e8a9 <= 1000
 0 <= rxn12500_c0 <= 1000
 0 <= rxn12500_c0_reverse_2c526 <= 1000
 0 <= TRANS_DASH_RXN_DASH_201 <= 1000
 0 <= TRANS_DASH_RXN_DASH_201_reverse_4fd6f <= 1000
 0 <= EXF_DASH_TOLUENE_LBRACKET_Extraorganism_RBRACKET_ <= 100
 EXF_DASH_TOLUENE_LBRACKET_Extraorganism_RBRACKET__reverse_e9ae8 = 0
 0 <= rxn12385_c0 <= 1000
 0 <= rxn12385_c0_reverse_a935c <= 1000
 0 <= EXF_DASH_PHE_LBRACKET_Extraorganism_RBRACKET_ <= 100
 EXF_DASH_PHE_LBRACKET_Extraorganism_RBRACKET__reverse_2073b = 0
 0 <= EXF_DASH_BUTANEDIOL_LBRACKET_Extraorganism_RBRACKET_ <= 100
 EXF_DASH_BUTANEDIOL_LBRACKET_Extraorganism_RBRACKET__reverse_bd15d = 0
 0 <= rxn08767_c0 <= 1000
 0 <= rxn08767_c0_reverse_fed36 <= 1000
 0 <= rxn05153_c0 <= 1000
 0 <= rxn05153_c0_reverse_4452f <= 1000
 0 <= rxn12297_c0 <= 1000
 0 <= rxn12297_c0_reverse_17183 <= 1000
 0 <= EXF_DASH_PURINE_LBRACKET_Extraorganism_RBRACKET_ <= 100
 EXF_DASH_PURINE_LBRACKET_Extraorganism_RBRACKET__reverse_648c6 = 0
 0 <= rxn00781_c0 <= 1000
 0 <= rxn00781_c0_reverse_762ea <= 1000
 0 <= rxn09444_c0 <= 1000
 0 <= rxn09444_c0_reverse_6bd76 <= 1000
 0 <= rxn05256_c0 <= 1000
 0 <= rxn05256_c0_reverse_351cd <= 1000
 0 <= rxn00912_c0 <= 1000
 0 <= rxn00912_c0_reverse_23517 <= 1000
 0 <= rxn04308_c0 <= 1000
 0 <= rxn04308_c0_reverse_b89c4 <= 1000
 0 <= EXF_DASH_FE_PLUS_2_LBRACKET_Extraorganism_RBRACKET_ <= 100
 0 <= EXF_DASH_FE_PLUS_2_LBRACKET_Extraorganism_RBRACKET__reverse_e162a <= 100
 0 <= rxn00941_c0 <= 1000
 0 <= rxn00941_c0_reverse_91e08 <= 1000
 0 <= rxn01286_c0 <= 1000
 0 <= rxn01286_c0_reverse_9270e <= 1000
 0 <= rxn00671_c0 <= 1000
 0 <= rxn00671_c0_reverse_51323 <= 1000
 0 <= rxn08043_c0 <= 1000
 0 <= rxn08043_c0_reverse_11b99 <= 1000
 0 <= rxn03087_c0 <= 1000
 0 <= rxn03087_c0_reverse_55192 <= 1000
 0 <= rxn01204_c0 <= 1000
 0 <= rxn01204_c0_reverse_2bd15 <= 1000
 0 <= rxn01791_c0 <= 1000
 0 <= rxn01791_c0_reverse_2cc23 <= 1000
 0 <= rxn03136_c0 <= 1000
 0 <= rxn03136_c0_reverse_374cf <= 1000
 0 <= rxn08900_c0 <= 1000
 0 <= rxn08900_c0_reverse_a503b <= 1000
 0 <= rxn05114_c0 <= 1000
 0 <= rxn05114_c0_reverse_34e1e <= 1000
 0 <= EXF_DASH_URACIL_LBRACKET_Extraorganism_RBRACKET_ <= 100
 EXF_DASH_URACIL_LBRACKET_Extraorganism_RBRACKET__reverse_019d4 = 0
 0 <= rxn00171_c0 <= 1000
 0 <= rxn00171_c0_reverse_94974 <= 1000
 0 <= rxn00799_c0 <= 1000
 0 <= rxn00799_c0_reverse_559f2 <= 1000
 0 <= rxn00980_c0 <= 1000
 0 <= rxn00980_c0_reverse_3afe7 <= 1000
 0 <= rxn05330_c0 <= 1000
 0 <= rxn05330_c0_reverse_452b8 <= 1000
 0 <= rxn05328_c0 <= 1000
 0 <= rxn05328_c0_reverse_20c79 <= 1000
 0 <= rxn12312_c0 <= 1000
 0 <= rxn12312_c0_reverse_ab1d2 <= 1000
 0 <= rxn06090_c0 <= 1000
 0 <= rxn06090_c0_reverse_5e199 <= 1000
 0 <= rxn02504_c0 <= 1000
 0 <= rxn02504_c0_reverse_fb5ec <= 1000
 0 <= rxn43380_c0 <= 1000
 0 <= rxn43380_c0_reverse_45ca6 <= 1000
 0 <= rxn41935_c0 <= 1000
 0 <= rxn41935_c0_reverse_db2c5 <= 1000
 0 <= rxn03841_c0 <= 1000
 0 <= rxn03841_c0_reverse_be66b <= 1000
 0 <= rxn04750_c0 <= 1000
 0 <= rxn04750_c0_reverse_2a2a6 <= 1000
 0 <= EXF_DASH_L_DASH_ALPHA_DASH_ALANINE_LBRACKET_Extraorganism_RBRACKET_ <= 100
 EXF_DASH_L_DASH_ALPHA_DASH_ALANINE_LBRACKET_Extraorganism_RBRACKET__reverse_bdf85 = 0
 0 <= rxn00392_c0 <= 1000
 0 <= rxn00392_c0_reverse_24c76 <= 1000
 0 <= rxn01032_c0 <= 1000
 0 <= rxn01032_c0_reverse_bad7b <= 1000
 0 <= rxn05221_c0 <= 1000
 0 <= rxn05221_c0_reverse_7f2fc <= 1000
 0 <= rxn01127_c0 <= 1000
 0 <= rxn01127_c0_reverse_b0168 <= 1000
 0 <= EXF_DASH_C16_COLON_0_LBRACKET_Extraorganism_RBRACKET_ <= 100
 EXF_DASH_C16_COLON_0_LBRACKET_Extraorganism_RBRACKET__reverse_e5998 = 0
 0 <= EXF_DASH_4_DASH_AMINO_DASH_BUTYRATE_LBRACKET_Extraorganism_RBRACKET_ <= 100
 EXF_DASH_4_DASH_AMINO_DASH_BUTYRATE_LBRACKET_Extraorganism_RBRACKET__reverse_72ca1 = 0
 0 <= rxn12406_c0 <= 1000
 0 <= rxn12406_c0_reverse_53f28 <= 1000
 0 <= rxn12271_c0 <= 1000
 0 <= rxn12271_c0_reverse_7660f <= 1000
 0 <= rxn00139_c0 <= 1000
 0 <= rxn00139_c0_reverse_8174b <= 1000
 0 <= rxn03904_c0 <= 1000
 0 <= rxn03904_c0_reverse_f0a70 <= 1000
 0 <= rxn00710_c0 <= 1000
 0 <= rxn00710_c0_reverse_4581a <= 1000
 0 <= UNBAL_DASH_S_DASH_ADENOSYL_DASH_4_DASH_METHYLTHIO_DASH_2_DASH_OXOBUTANOATE <= 1000
 0 <= UNBAL_DASH_S_DASH_ADENOSYL_DASH_4_DASH_METHYLTHIO_DASH_2_DASH_OXOBUTANOATE_reverse_4cafe <= 1000
 0 <= rxn00913_c0 <= 1000
 0 <= rxn00913_c0_reverse_e72c9 <= 1000
 0 <= EXF_DASH_COUMARATE_LBRACKET_Extraorganism_RBRACKET_ <= 100
 EXF_DASH_COUMARATE_LBRACKET_Extraorganism_RBRACKET__reverse_411ef = 0
 0 <= rxn44809_c0 <= 1000
 0 <= rxn44809_c0_reverse_8ad86 <= 1000
 0 <= rxn47831_c0 <= 1000
 0 <= rxn47831_c0_reverse_68e43 <= 1000
 0 <= rxn12292_c0 <= 1000
 0 <= rxn12292_c0_reverse_021f3 <= 1000
 0 <= rxn05334_c0 <= 1000
 0 <= rxn05334_c0_reverse_1a75d <= 1000
 0 <= rxn43736_c0 <= 1000
 0 <= rxn43736_c0_reverse_eccd9 <= 1000
 0 <= rxn05326_c0 <= 1000
 0 <= rxn05326_c0_reverse_7e919 <= 1000
 0 <= rxn00347_c0 <= 1000
 0 <= rxn00347_c0_reverse_4aa4c <= 1000
 0 <= rxn05152_c0 <= 1000
 0 <= rxn05152_c0_reverse_3e5ca <= 1000
 0 <= rxn00509_c0 <= 1000
 0 <= rxn00509_c0_reverse_e58fa <= 1000
 0 <= rxn02312_c0 <= 1000
 0 <= rxn02312_c0_reverse_64ca4 <= 1000
 0 <= rxn48235_c0 <= 1000
 0 <= rxn48235_c0_reverse_cb3b8 <= 1000
 0 <= rxn03080_c0 <= 1000
 0 <= rxn03080_c0_reverse_17453 <= 1000
 0 <= rxn12402_c0 <= 1000
 0 <= rxn12402_c0_reverse_4f35d <= 1000
 0 <= EXF_DASH_ETHANOL_DASH_AMINE_LBRACKET_Extraorganism_RBRACKET_ <= 100
 EXF_DASH_ETHANOL_DASH_AMINE_LBRACKET_Extraorganism_RBRACKET__reverse_6936a = 0
 0 <= rxn12373_c0 <= 1000
 0 <= rxn12373_c0_reverse_1319d <= 1000
 0 <= rxn00950_c0 <= 1000
 0 <= rxn00950_c0_reverse_f76b0 <= 1000
 0 <= rxn03586_c0 <= 1000
 0 <= rxn03586_c0_reverse_bec9c <= 1000
 0 <= EXF_DASH_NICOTINAMIDE_NUCLEOTIDE_LBRACKET_Extraorganism_RBRACKET_ <= 100
 EXF_DASH_NICOTINAMIDE_NUCLEOTIDE_LBRACKET_Extraorganism_RBRACKET__reverse_46675 = 0
 0 <= EXF_DASH_CYTOSINE_LBRACKET_Extraorganism_RBRACKET_ <= 100
 EXF_DASH_CYTOSINE_LBRACKET_Extraorganism_RBRACKET__reverse_add6f = 0
 0 <= rxn12252_c0 <= 1000
 0 <= rxn12252_c0_reverse_f2ba3 <= 1000
 0 <= rxn05345_c0 <= 1000
 0 <= rxn05345_c0_reverse_d76ed <= 1000
 0 <= rxn12251_c0 <= 1000
 0 <= rxn12251_c0_reverse_0649a <= 1000
 0 <= rxn00679_c0 <= 1000
 0 <= rxn00679_c0_reverse_243e0 <= 1000
 0 <= rxn12370_c0 <= 1000
 0 <= rxn12370_c0_reverse_7557c <= 1000
 0 <= rxn04024_c0 <= 1000
 0 <= rxn04024_c0_reverse_98aa9 <= 1000
 0 <= rxn05183_c0 <= 1000
 0 <= rxn05183_c0_reverse_3dbd5 <= 1000
 0 <= EXF_DASH_ANTHRANILATE_LBRACKET_Extraorganism_RBRACKET_ <= 100
 EXF_DASH_ANTHRANILATE_LBRACKET_Extraorganism_RBRACKET__reverse_925b6 = 0
 0 <= rxn02320_c0 <= 1000
 0 <= rxn02320_c0_reverse_9f689 <= 1000
 0 <= rxn12376_c0 <= 1000
 0 <= rxn12376_c0_reverse_6d0eb <= 1000
 0 <= rxn00433_c0 <= 1000
 0 <= rxn00433_c0_reverse_fd8dd <= 1000
 0 <= rxn07574_c0 <= 1000
 0 <= rxn07574_c0_reverse_11452 <= 1000
 0 <= rxn12282_c0 <= 1000
 0 <= rxn12282_c0_reverse_ba0b6 <= 1000
 0 <= rxn00851_c0 <= 1000
 0 <= rxn00851_c0_reverse_59c29 <= 1000
 0 <= EXF_DASH_L_DASH_ORNITHINE_LBRACKET_Extraorganism_RBRACKET_ <= 100
 EXF_DASH_L_DASH_ORNITHINE_LBRACKET_Extraorganism_RBRACKET__reverse_29859 = 0
 0 <= rxn02000_c0 <= 1000
 0 <= rxn02000_c0_reverse_38fff <= 1000
 0 <= rxn12295_c0 <= 1000
 0 <= rxn12295_c0_reverse_64262 <= 1000
 0 <= rxn03422_c0 <= 1000
 0 <= rxn03422_c0_reverse_84b00 <= 1000
 0 <= rxn12322_c0 <= 1000
 0 <= rxn12322_c0_reverse_abd61 <= 1000
 0 <= rxn05219_c0 <= 1000
 0 <= rxn05219_c0_reverse_e0806 <= 1000
 0 <= rxn01858_c0 <= 1000
 0 <= rxn01858_c0_reverse_04502 <= 1000
 0 <= rxn01219_c0 <= 1000
 0 <= rxn01219_c0_reverse_8a3a4 <= 1000
 0 <= TRANS_DASH_RXN_DASH_L_DASH_ASPARTATE <= 1000
 0 <= TRANS_DASH_RXN_DASH_L_DASH_ASPARTATE_reverse_1aaca <= 1000
 0 <= rxn02508_c0 <= 1000
 0 <= rxn02508_c0_reverse_e1392 <= 1000
 0 <= EXF_DASH_BUTYRIC_ACID_LBRACKET_Extraorganism_RBRACKET_ <= 100
 EXF_DASH_BUTYRIC_ACID_LBRACKET_Extraorganism_RBRACKET__reverse_d2a14 = 0
 0 <= rxn01451_c0 <= 1000
 0 <= rxn01451_c0_reverse_007d5 <= 1000
 0 <= rxn00917_c0 <= 1000
 0 <= rxn00917_c0_reverse_35aaa <= 1000
 0 <= rxn07578_c0 <= 1000
 0 <= rxn07578_c0_reverse_77323 <= 1000
 0 <= rxn01293_c0 <= 1000
 0 <= rxn01293_c0_reverse_91d3a <= 1000
 0 <= rxn02303_c0 <= 1000
 0 <= rxn02303_c0_reverse_3b873 <= 1000
 0 <= rxn12411_c0 <= 1000
 0 <= rxn12411_c0_reverse_bbf81 <= 1000
 0 <= rxn12412_c0 <= 1000
 0 <= rxn12412_c0_reverse_78db1 <= 1000
 0 <= rxn12352_c0 <= 1000
 0 <= rxn12352_c0_reverse_d2021 <= 1000
 0 <= rxn12261_c0 <= 1000
 0 <= rxn12261_c0_reverse_cc8e1 <= 1000
 0 <= rxn12409_c0 <= 1000
 0 <= rxn12409_c0_reverse_a865e <= 1000
 0 <= rxn00330_c0 <= 1000
 0 <= rxn00330_c0_reverse_9c12f <= 1000
 0 <= rxn10126_c0 <= 1000
 0 <= rxn10126_c0_reverse_95955 <= 1000
 0 <= rxn12199_c0 <= 1000
 0 <= rxn12199_c0_reverse_3571b <= 1000
 0 <= rxn12496_c0 <= 1000
 0 <= rxn12496_c0_reverse_ff0a4 <= 1000
 0 <= rxn00184_c0 <= 1000
 0 <= rxn00184_c0_reverse_bf801 <= 1000
 0 <= rxn12279_c0 <= 1000
 0 <= rxn12279_c0_reverse_d5b2d <= 1000
 0 <= rxn08446_c0 <= 1000
 0 <= rxn08446_c0_reverse_2e5b5 <= 1000
 0 <= rxn00175_c0 <= 1000
 0 <= rxn00175_c0_reverse_c6ef7 <= 1000
 0 <= rxn26065_c0 <= 1000
 0 <= rxn26065_c0_reverse_d1734 <= 1000
 0 <= RXN0_DASH_366 <= 1000
 0 <= RXN0_DASH_366_reverse_21134 <= 1000
 0 <= rxn12274_c0 <= 1000
 0 <= rxn12274_c0_reverse_2c064 <= 1000
 0 <= rxn01685_c0 <= 1000
 0 <= rxn01685_c0_reverse_01df7 <= 1000
 0 <= EXF_DASH_FRU_LBRACKET_Extraorganism_RBRACKET_ <= 100
 EXF_DASH_FRU_LBRACKET_Extraorganism_RBRACKET__reverse_3f79b = 0
 0 <= EXF_DASH_CPDIM_DASH_6116_LBRACKET_Extraorganism_RBRACKET_ <= 100
 EXF_DASH_CPDIM_DASH_6116_LBRACKET_Extraorganism_RBRACKET__reverse_21256 = 0
 0 <= rxn12290_c0 <= 1000
 0 <= rxn12290_c0_reverse_ddf36 <= 1000
 0 <= rxn00925_c0 <= 1000
 0 <= rxn00925_c0_reverse_da2c8 <= 1000
 0 <= rxn06729_c0 <= 1000
 0 <= rxn06729_c0_reverse_4b155 <= 1000
 0 <= EXF_DASH_D_DASH_SERINE_LBRACKET_Extraorganism_RBRACKET_ <= 100
 EXF_DASH_D_DASH_SERINE_LBRACKET_Extraorganism_RBRACKET__reverse_fd563 = 0
 0 <= EXF_DASH_CPD_DASH_302_LBRACKET_Extraorganism_RBRACKET_ <= 100
 EXF_DASH_CPD_DASH_302_LBRACKET_Extraorganism_RBRACKET__reverse_d94ca = 0
 0 <= EXF_DASH_AMMONIUM_LBRACKET_Extraorganism_RBRACKET_ <= 100
 0 <= EXF_DASH_AMMONIUM_LBRACKET_Extraorganism_RBRACKET__reverse_b20c9 <= 100
 0 <= EXF_DASH_GLUCONATE_LBRACKET_Extraorganism_RBRACKET_ <= 100
 EXF_DASH_GLUCONATE_LBRACKET_Extraorganism_RBRACKET__reverse_19277 = 0
 0 <= rxn01331_c0 <= 1000
 0 <= rxn01331_c0_reverse_39a94 <= 1000
 0 <= rxn12255_c0 <= 1000
 0 <= rxn12255_c0_reverse_1f2ed <= 1000
 0 <= rxn12192_c0 <= 1000
 0 <= rxn12192_c0_reverse_10826 <= 1000
 0 <= rxn08854_c0 <= 1000
 0 <= rxn08854_c0_reverse_00a2b <= 1000
 0 <= rxn00299_c0 <= 1000
 0 <= rxn00299_c0_reverse_d20b3 <= 1000
 0 <= EXF_DASH_MET_LBRACKET_Extraorganism_RBRACKET_ <= 100
 EXF_DASH_MET_LBRACKET_Extraorganism_RBRACKET__reverse_71074 = 0
 0 <= rxn12422_c0 <= 1000
 0 <= rxn12422_c0_reverse_3885e <= 1000
 0 <= rxn02288_c0 <= 1000
 0 <= rxn02288_c0_reverse_dc892 <= 1000
 0 <= rxn08995_c0 <= 1000
 0 <= rxn08995_c0_reverse_602b3 <= 1000
 0 <= rxn02008_c0 <= 1000
 0 <= rxn02008_c0_reverse_3b950 <= 1000
 0 <= rxn00367_c0 <= 1000
 0 <= rxn00367_c0_reverse_8ab6d <= 1000
 0 <= rxn09013_c0 <= 1000
 0 <= rxn09013_c0_reverse_90828 <= 1000
 0 <= rxn01351_c0 <= 1000
 0 <= rxn01351_c0_reverse_08d9b <= 1000
 0 <= rxn05564_c0 <= 1000
 0 <= rxn05564_c0_reverse_24c42 <= 1000
 0 <= rxn03135_c0 <= 1000
 0 <= rxn03135_c0_reverse_4b505 <= 1000
 0 <= rxn01300_c0 <= 1000
 0 <= rxn01300_c0_reverse_a4dd2 <= 1000
 0 <= rxn01997_c0 <= 1000
 0 <= rxn01997_c0_reverse_e1a54 <= 1000
 0 <= rxn03974_c0 <= 1000
 0 <= rxn03974_c0_reverse_bfeb1 <= 1000
 0 <= EXF_DASH_CPD_DASH_205_LBRACKET_Extraorganism_RBRACKET_ <= 100
 EXF_DASH_CPD_DASH_205_LBRACKET_Extraorganism_RBRACKET__reverse_8f867 = 0
 0 <= rxn01492_c0 <= 1000
 0 <= rxn01492_c0_reverse_94799 <= 1000
 0 <= EXF_DASH_DEOXYURIDINE_LBRACKET_Extraorganism_RBRACKET_ <= 100
 EXF_DASH_DEOXYURIDINE_LBRACKET_Extraorganism_RBRACKET__reverse_8325a = 0
 0 <= EXF_DASH_CIT_LBRACKET_Extraorganism_RBRACKET_ <= 100
 EXF_DASH_CIT_LBRACKET_Extraorganism_RBRACKET__reverse_bf0ff = 0
 0 <= rxn12407_c0 <= 1000
 0 <= rxn12407_c0_reverse_208dc <= 1000
 0 <= rxn12355_c0 <= 1000
 0 <= rxn12355_c0_reverse_ab404 <= 1000
 0 <= rxn04786_c0 <= 1000
 0 <= rxn04786_c0_reverse_63c31 <= 1000
 0 <= rxn12330_c0 <= 1000
 0 <= rxn12330_c0_reverse_001d7 <= 1000
 0 <= rxn00029_c0 <= 1000
 0 <= rxn00029_c0_reverse_860e3 <= 1000
 0 <= rxn01480_c0 <= 1000
 0 <= rxn01480_c0_reverse_f37c4 <= 1000
 0 <= rxn12391_c0 <= 1000
 0 <= rxn12391_c0_reverse_09304 <= 1000
 0 <= rxn12338_c0 <= 1000
 0 <= rxn12338_c0_reverse_0086a <= 1000
 0 <= rxn00143_c0 <= 1000
 0 <= rxn00143_c0_reverse_66afb <= 1000
 0 <= rxn12359_c0 <= 1000
 0 <= rxn12359_c0_reverse_289a6 <= 1000
 0 <= rxn20643_c0 <= 1000
 0 <= rxn20643_c0_reverse_33af7 <= 1000
 0 <= rxn08856_c0 <= 1000
 0 <= rxn08856_c0_reverse_96103 <= 1000
 0 <= rxn08053_c0 <= 1000
 0 <= rxn08053_c0_reverse_6b9e0 <= 1000
 0 <= rxn08975_c0 <= 1000
 0 <= rxn08975_c0_reverse_12267 <= 1000
 0 <= rxn00649_c0 <= 1000
 0 <= rxn00649_c0_reverse_37aab <= 1000
 0 <= EXF_DASH_GLN_LBRACKET_Extraorganism_RBRACKET_ <= 100
 EXF_DASH_GLN_LBRACKET_Extraorganism_RBRACKET__reverse_5f281 = 0
 0 <= rxn08469_c0 <= 1000
 0 <= rxn08469_c0_reverse_dae27 <= 1000
 0 <= rxn08155_c0 <= 1000
 0 <= rxn08155_c0_reverse_89609 <= 1000
 0 <= rxn12228_c0 <= 1000
 0 <= rxn12228_c0_reverse_9e732 <= 1000
 0 <= rxn03891_c0 <= 1000
 0 <= rxn03891_c0_reverse_b37bf <= 1000
 0 <= rxn03246_c0 <= 1000
 0 <= rxn03246_c0_reverse_93213 <= 1000
 0 <= C14_COLON_0_DASH_3HYDROXYACP_DASH_DEHYDRATASE_DASH_RXN <= 1000
 0 <= C14_COLON_0_DASH_3HYDROXYACP_DASH_DEHYDRATASE_DASH_RXN_reverse_1be06 <= 1000
 0 <= rxn01739_c0 <= 1000
 0 <= rxn01739_c0_reverse_40beb <= 1000
 0 <= rxn12270_c0 <= 1000
 0 <= rxn12270_c0_reverse_64c08 <= 1000
 0 <= rxn12410_c0 <= 1000
 0 <= rxn12410_c0_reverse_0398a <= 1000
 0 <= rxn12336_c0 <= 1000
 0 <= rxn12336_c0_reverse_cf461 <= 1000
 0 <= GROWTH_DASH_RXN <= 1000
 0 <= GROWTH_DASH_RXN_reverse_6bca6 <= 1000
 0 <= rxn09256_c0 <= 1000
 0 <= rxn09256_c0_reverse_5e3c7 <= 1000
 0 <= rxn00601_c0 <= 1000
 0 <= rxn00601_c0_reverse_07197 <= 1000
 0 <= rxn01116_c0 <= 1000
 0 <= rxn01116_c0_reverse_042bd <= 1000
 0 <= rxn12382_c0 <= 1000
 0 <= rxn12382_c0_reverse_485cf <= 1000
 0 <= rxn44292_c0 <= 1000
 0 <= rxn44292_c0_reverse_16d1f <= 1000
 0 <= rxn02004_c0 <= 1000
 0 <= rxn02004_c0_reverse_e631c <= 1000
 0 <= rxn12239_c0 <= 1000
 0 <= rxn12239_c0_reverse_a1aee <= 1000
 0 <= rxn01634_c0 <= 1000
 0 <= rxn01634_c0_reverse_88f19 <= 1000
 0 <= rxn12227_c0 <= 1000
 0 <= rxn12227_c0_reverse_f6816 <= 1000
 0 <= rxn12438_c0 <= 1000
 0 <= rxn12438_c0_reverse_e6539 <= 1000
 0 <= rxn12254_c0 <= 1000
 0 <= rxn12254_c0_reverse_ac3c1 <= 1000
 0 <= rxn00191_c0 <= 1000
 0 <= rxn00191_c0_reverse_beaba <= 1000
 0 <= rxn03958_c0 <= 1000
 0 <= rxn03958_c0_reverse_f6c22 <= 1000
 0 <= rxn00962_c0 <= 1000
 0 <= rxn00962_c0_reverse_0f878 <= 1000
 0 <= rxn01917_c0 <= 1000
 0 <= rxn01917_c0_reverse_8a0d8 <= 1000
 0 <= rxn00095_c0 <= 1000
 0 <= rxn00095_c0_reverse_81e8f <= 1000
 0 <= x_1695 <= 1000
 0 <= x_1696 <= 1000
 0 <= rxn00595_c0 <= 1000
 0 <= rxn00595_c0_reverse_f4370 <= 1000
 0 <= EXF_DASH_C18_COLON_1_LPAREN_C9_RPAREN__LBRACKET_Extraorganism_RBRACKET_ <= 100
 EXF_DASH_C18_COLON_1_LPAREN_C9_RPAREN__LBRACKET_Extraorganism_RBRACKET__reverse_ddbfc = 0
 0 <= rxn12415_c0 <= 1000
 0 <= rxn12415_c0_reverse_816be <= 1000
 0 <= EXF_DASH_CPD_DASH_3623_LBRACKET_Extraorganism_RBRACKET_ <= 100
 EXF_DASH_CPD_DASH_3623_LBRACKET_Extraorganism_RBRACKET__reverse_ea3ad = 0
 0 <= rxn03245_c0 <= 1000
 0 <= rxn03245_c0_reverse_157ba <= 1000
 0 <= rxn02155_c0 <= 1000
 0 <= rxn02155_c0_reverse_fd760 <= 1000
 0 <= rxn00555_c0 <= 1000
 0 <= rxn00555_c0_reverse_e0f3c <= 1000
 0 <= rxn00122_c0 <= 1000
 0 <= rxn00122_c0_reverse_784de <= 1000
 0 <= rxn06723_c0 <= 1000
 0 <= rxn06723_c0_reverse_18b5b <= 1000
 0 <= rxn05329_c0 <= 1000
 0 <= rxn05329_c0_reverse_d98be <= 1000
 0 <= rxn00291_c0 <= 1000
 0 <= rxn00291_c0_reverse_dab3b <= 1000
 0 <= rxn06075_c0 <= 1000
 0 <= rxn06075_c0_reverse_62c9c <= 1000
 0 <= rxn01742_c0 <= 1000
 0 <= rxn01742_c0_reverse_1275e <= 1000
 0 <= rxn15021_c0 <= 1000
 0 <= rxn15021_c0_reverse_7ca4e <= 1000
 0 <= rxn12331_c0 <= 1000
 0 <= rxn12331_c0_reverse_d8803 <= 1000
 0 <= rxn12308_c0 <= 1000
 0 <= rxn12308_c0_reverse_8ff5e <= 1000
 0 <= EXF_DASH_CYTIDINE_LBRACKET_Extraorganism_RBRACKET_ <= 100
 EXF_DASH_CYTIDINE_LBRACKET_Extraorganism_RBRACKET__reverse_4604c = 0
 0 <= rxn06044_c0 <= 1000
 0 <= rxn06044_c0_reverse_b60f7 <= 1000
 0 <= rxn02212_c0 <= 1000
 0 <= rxn02212_c0_reverse_54d5b <= 1000
 0 <= rxn00251_c0 <= 1000
 0 <= rxn00251_c0_reverse_b1866 <= 1000
 0 <= rxn00166_c0 <= 1000
 0 <= rxn00166_c0_reverse_693ae <= 1000
 0 <= rxn08440_c0 <= 1000
 0 <= rxn08440_c0_reverse_26b9d <= 1000
 0 <= rxn06619_c0 <= 1000
 0 <= rxn06619_c0_reverse_9faa5 <= 1000
 0 <= rxn10770_c0 <= 1000
 0 <= rxn10770_c0_reverse_d53c0 <= 1000
 0 <= EXF_DASH_PI_LBRACKET_Extraorganism_RBRACKET_ <= 100
 0 <= EXF_DASH_PI_LBRACKET_Extraorganism_RBRACKET__reverse_e1c06 <= 100
 0 <= rxn12498_c0 <= 1000
 0 <= rxn12498_c0_reverse_04855 <= 1000
 0 <= rxn01145_c0 <= 1000
 0 <= rxn01145_c0_reverse_a92f4 <= 1000
 0 <= rxn01802_c0 <= 1000
 0 <= rxn01802_c0_reverse_9e3ef <= 1000
 0 <= rxn12366_c0 <= 1000
 0 <= rxn12366_c0_reverse_b6ba1 <= 1000
 0 <= rxn00423_c0 <= 1000
 0 <= rxn00423_c0_reverse_ebe14 <= 1000
 0 <= rxn12283_c0 <= 1000
 0 <= rxn12283_c0_reverse_fdf92 <= 1000
 0 <= rxn03249_c0 <= 1000
 0 <= rxn03249_c0_reverse_5259d <= 1000
 0 <= rxn12314_c0 <= 1000
 0 <= rxn12314_c0_reverse_d6204 <= 1000
 0 <= EXF_DASH_CPD_DASH_218_LBRACKET_Extraorganism_RBRACKET_ <= 100
 EXF_DASH_CPD_DASH_218_LBRACKET_Extraorganism_RBRACKET__reverse_ce1eb = 0
 0 <= rxn09295_c0 <= 1000
 0 <= rxn09295_c0_reverse_354db <= 1000
 0 <= rxn01427_c0 <= 1000
 0 <= rxn01427_c0_reverse_2284d <= 1000
 0 <= rxn12399_c0 <= 1000
 0 <= rxn12399_c0_reverse_b5c17 <= 1000
 0 <= rxn03250_c0 <= 1000
 0 <= rxn03250_c0_reverse_5161e <= 1000
 0 <= EXF_DASH_GLYCEROL_LBRACKET_Extraorganism_RBRACKET_ <= 100
 EXF_DASH_GLYCEROL_LBRACKET_Extraorganism_RBRACKET__reverse_d16f6 = 0
 0 <= rxn00328_c0 <= 1000
 0 <= rxn00328_c0_reverse_2373d <= 1000
 0 <= EXF_DASH_CPD_DASH_3571_LBRACKET_Extraorganism_RBRACKET_ <= 100
 EXF_DASH_CPD_DASH_3571_LBRACKET_Extraorganism_RBRACKET__reverse_06f01 = 0
 0 <= rxn03052_c0 <= 1000
 0 <= rxn03052_c0_reverse_04585 <= 1000
 0 <= rxn05036_c0 <= 1000
 0 <= rxn05036_c0_reverse_a2fdd <= 1000
 0 <= rxn03108_c0 <= 1000
 0 <= rxn03108_c0_reverse_afd32 <= 1000
 0 <= rxn01303_c0 <= 1000
 0 <= rxn01303_c0_reverse_5cb95 <= 1000
 0 <= rxn02305_c0 <= 1000
 0 <= rxn02305_c0_reverse_6ed69 <= 1000
 0 <= rxn02473_c0 <= 1000
 0 <= rxn02473_c0_reverse_9b509 <= 1000
 0 <= EXF_DASH_L_DASH_LACTATE_LBRACKET_Extraorganism_RBRACKET_ <= 100
 EXF_DASH_L_DASH_LACTATE_LBRACKET_Extraorganism_RBRACKET__reverse_6be68 = 0
 0 <= rxn12369_c0 <= 1000
 0 <= rxn12369_c0_reverse_942cb <= 1000
 0 <= rxn00438_c0 <= 1000
 0 <= rxn00438_c0_reverse_21406 <= 1000
 0 <= rxn12309_c0 <= 1000
 0 <= rxn12309_c0_reverse_1042b <= 1000
 0 <= rxn00154_c0 <= 1000
 0 <= rxn00154_c0_reverse_67f30 <= 1000
 0 <= rxn00747_c0 <= 1000
 0 <= rxn00747_c0_reverse_9d23d <= 1000
 0 <= rxn05736_c0 <= 1000
 0 <= rxn05736_c0_reverse_9104b <= 1000
 0 <= rxn00943_c0 <= 1000
 0 <= rxn00943_c0_reverse_a6b46 <= 1000
 0 <= rxn03168_c0 <= 1000
 0 <= rxn03168_c0_reverse_d9d27 <= 1000
 0 <= rxn12277_c0 <= 1000
 0 <= rxn12277_c0_reverse_25bb7 <= 1000
 0 <= rxn12231_c0 <= 1000
 0 <= rxn12231_c0_reverse_fa7fd <= 1000
 0 <= rxn08184_c0 <= 1000
 0 <= rxn08184_c0_reverse_47d0f <= 1000
 0 <= rxn08094_c0 <= 1000
 0 <= rxn08094_c0_reverse_a5cfe <= 1000
 0 <= rxn09260_c0 <= 1000
 0 <= rxn09260_c0_reverse_dfd83 <= 1000
 0 <= rxn00117_c0 <= 1000
 0 <= rxn00117_c0_reverse_96cd0 <= 1000
 0 <= rxn00211_c0 <= 1000
 0 <= rxn00211_c0_reverse_3e4c5 <= 1000
 0 <= rxn12316_c0 <= 1000
 0 <= rxn12316_c0_reverse_1fded <= 1000
 0 <= rxn08581_c0 <= 1000
 0 <= rxn08581_c0_reverse_5e8b6 <= 1000
 0 <= rxn12440_c0 <= 1000
 0 <= rxn12440_c0_reverse_5f0f3 <= 1000
 0 <= rxn12510_c0 <= 1000
 0 <= rxn12510_c0_reverse_e8662 <= 1000
 0 <= rxn01274_c0 <= 1000
 0 <= rxn01274_c0_reverse_3c82a <= 1000
 0 <= EXF_DASH_PRO_LBRACKET_Extraorganism_RBRACKET_ <= 100
 EXF_DASH_PRO_LBRACKET_Extraorganism_RBRACKET__reverse_9d153 = 0
 0 <= rxn01643_c0 <= 1000
 0 <= rxn01643_c0_reverse_7e2ea <= 1000
 0 <= rxn03182_c0 <= 1000
 0 <= rxn03182_c0_reverse_1fd52 <= 1000
 0 <= EXF_DASH_GLUTARATE_LBRACKET_Extraorganism_RBRACKET_ <= 100
 EXF_DASH_GLUTARATE_LBRACKET_Extraorganism_RBRACKET__reverse_e9616 = 0
 0 <= rxn05466_c0 <= 1000
 0 <= rxn05466_c0_reverse_89e04 <= 1000
 0 <= rxn00300_c0 <= 1000
 0 <= rxn00300_c0_reverse_7e153 <= 1000
 0 <= rxn12323_c0 <= 1000
 0 <= rxn12323_c0_reverse_5d45e <= 1000
 0 <= ACETOOHBUTREDUCTOISOM_DASH_RXN <= 1000
 0 <= ACETOOHBUTREDUCTOISOM_DASH_RXN_reverse_797f7 <= 1000
 0 <= rxn00132_c0 <= 1000
 0 <= rxn00132_c0_reverse_3a5d8 <= 1000
 0 <= rxn03897_c0 <= 1000
 0 <= rxn03897_c0_reverse_ad3b1 <= 1000
 0 <= rxn04753_c0 <= 1000
 0 <= rxn04753_c0_reverse_d3920 <= 1000
 0 <= rxn02911_c0 <= 1000
 0 <= rxn02911_c0_reverse_25737 <= 1000
 0 <= rxn01019_c0 <= 1000
 0 <= rxn01019_c0_reverse_56c77 <= 1000
 0 <= rxn12460_c0 <= 1000
 0 <= rxn12460_c0_reverse_fb4bd <= 1000
 0 <= EXF_DASH_C14_COLON_0_LBRACKET_Extraorganism_RBRACKET_ <= 100
 EXF_DASH_C14_COLON_0_LBRACKET_Extraorganism_RBRACKET__reverse_063f2 = 0
 0 <= rxn01571_c0 <= 1000
 0 <= rxn01571_c0_reverse_2e910 <= 1000
 0 <= rxn01520_c0 <= 1000
 0 <= rxn01520_c0_reverse_80f6b <= 1000
 0 <= rxn00611_c0 <= 1000
 0 <= rxn00611_c0_reverse_350e3 <= 1000
 0 <= EXF_DASH_BENZOATE_LBRACKET_Extraorganism_RBRACKET_ <= 100
 EXF_DASH_BENZOATE_LBRACKET_Extraorganism_RBRACKET__reverse_9e032 = 0
 0 <= rxn12253_c0 <= 1000
 0 <= rxn12253_c0_reverse_f6986 <= 1000
 0 <= rxn01297_c0 <= 1000
 0 <= rxn01297_c0_reverse_c2a85 <= 1000
 0 <= rxn01522_c0 <= 1000
 0 <= rxn01522_c0_reverse_e9b47 <= 1000
 0 <= rxn00770_c0 <= 1000
 0 <= rxn00770_c0_reverse_9f9ec <= 1000
 0 <= rxn12215_c0 <= 1000
 0 <= rxn12215_c0_reverse_68c5f <= 1000
 0 <= rxn12219_c0 <= 1000
 0 <= rxn12219_c0_reverse_43385 <= 1000
 0 <= rxn12387_c0 <= 1000
 0 <= rxn12387_c0_reverse_f4220 <= 1000
 0 <= rxn00193_c0 <= 1000
 0 <= rxn00193_c0_reverse_274c9 <= 1000
 0 <= rxn00313_c0 <= 1000
 0 <= rxn00313_c0_reverse_f15f4 <= 1000
 0 <= rxn12286_c0 <= 1000
 0 <= rxn12286_c0_reverse_d1c2e <= 1000
 0 <= rxn05120_c0 <= 1000
 0 <= rxn05120_c0_reverse_6f116 <= 1000
 0 <= rxn05339_c0 <= 1000
 0 <= rxn05339_c0_reverse_7cfa4 <= 1000
 0 <= rxn01485_c0 <= 1000
 0 <= rxn01485_c0_reverse_92ff0 <= 1000
 0 <= NADH_DASH_DEHYDROGENASE_DASH_RXN <= 1000
 0 <= NADH_DASH_DEHYDROGENASE_DASH_RXN_reverse_eb679 <= 1000
 0 <= rxn00779_c0 <= 1000
 0 <= rxn00779_c0_reverse_9042e <= 1000
 0 <= rxn00615_c0 <= 1000
 0 <= rxn00615_c0_reverse_413b8 <= 1000
 0 <= rxn02476_c0 <= 1000
 0 <= rxn02476_c0_reverse_8b374 <= 1000
 0 <= rxn01362_c0 <= 1000
 0 <= rxn01362_c0_reverse_415bb <= 1000
 0 <= rxn05346_c0 <= 1000
 0 <= rxn05346_c0_reverse_53599 <= 1000
 0 <= EXF_DASH_CARNITINE_LBRACKET_Extraorganism_RBRACKET_ <= 100
 EXF_DASH_CARNITINE_LBRACKET_Extraorganism_RBRACKET__reverse_145a9 = 0
 0 <= EXF_DASH_C18_COLON_0_LBRACKET_Extraorganism_RBRACKET_ <= 100
 EXF_DASH_C18_COLON_0_LBRACKET_Extraorganism_RBRACKET__reverse_ab8dc = 0
 0 <= rxn12275_c0 <= 1000
 0 <= rxn12275_c0_reverse_d61b1 <= 1000
 0 <= rxn12257_c0 <= 1000
 0 <= rxn12257_c0_reverse_ff5eb <= 1000
 0 <= rxn00504_c0 <= 1000
 0 <= rxn00504_c0_reverse_5bbb1 <= 1000
 0 <= rxn00670_c0 <= 1000
 0 <= rxn00670_c0_reverse_b91ec <= 1000
 0 <= rxn08213_c0 <= 1000
 0 <= rxn08213_c0_reverse_3bf3a <= 1000
 0 <= rxn03969_c0 <= 1000
 0 <= rxn03969_c0_reverse_a1720 <= 1000
 0 <= rxn06043_c0 <= 1000
 0 <= rxn06043_c0_reverse_57cb0 <= 1000
 0 <= rxn02774_c0 <= 1000
 0 <= rxn02774_c0_reverse_0d621 <= 1000
 0 <= GLYCEROL_DASH_3_DASH_P_DASH_ACYLTRANSFER_DASH_PL_DASH_RXN <= 1000
 0 <= GLYCEROL_DASH_3_DASH_P_DASH_ACYLTRANSFER_DASH_PL_DASH_RXN_reverse_c99a7 <= 1000
 0 <= TRANS_DASH_RXN_DASH_MAL_DASH_DAACS <= 1000
 0 <= TRANS_DASH_RXN_DASH_MAL_DASH_DAACS_reverse_bfc25 <= 1000
 0 <= rxn06433_c0 <= 1000
 0 <= rxn06433_c0_reverse_b302b <= 1000
 0 <= rxn05560_c0 <= 1000
 0 <= rxn05560_c0_reverse_662b5 <= 1000
 0 <= rxn02475_c0 <= 1000
 0 <= rxn02475_c0_reverse_0a9f5 <= 1000
 0 <= rxn01257_c0 <= 1000
 0 <= rxn01257_c0_reverse_f67a1 <= 1000
 0 <= rxn12272_c0 <= 1000
 0 <= rxn12272_c0_reverse_3870d <= 1000
 0 <= EXF_DASH_BENZYL_DASH_ALCOHOL_LBRACKET_Extraorganism_RBRACKET_ <= 100
 EXF_DASH_BENZYL_DASH_ALCOHOL_LBRACKET_Extraorganism_RBRACKET__reverse_fb5dd = 0
 0 <= rxn12429_c0 <= 1000
 0 <= rxn12429_c0_reverse_17c11 <= 1000
 0 <= rxn01364_c0 <= 1000
 0 <= rxn01364_c0_reverse_c94af <= 1000
 0 <= rxn12258_c0 <= 1000
 0 <= rxn12258_c0_reverse_90736 <= 1000
 0 <= EXF_DASH_C16_COLON_1_LPAREN_C7_RPAREN__LBRACKET_Extraorganism_RBRACKET_ <= 100
 EXF_DASH_C16_COLON_1_LPAREN_C7_RPAREN__LBRACKET_Extraorganism_RBRACKET__reverse_333fb = 0
 0 <= rxn02503_c0 <= 1000
 0 <= rxn02503_c0_reverse_a68fc <= 1000
 0 <= rxn12445_c0 <= 1000
 0 <= rxn12445_c0_reverse_79161 <= 1000
 0 <= rxn12278_c0 <= 1000
 0 <= rxn12278_c0_reverse_13f19 <= 1000
 0 <= rxn01101_c0 <= 1000
 0 <= rxn01101_c0_reverse_5c292 <= 1000
 0 <= EXF_DASH_C5_COLON_0_LBRACKET_Extraorganism_RBRACKET_ <= 100
 EXF_DASH_C5_COLON_0_LBRACKET_Extraorganism_RBRACKET__reverse_d54c5 = 0
 0 <= rxn03970_c0 <= 1000
 0 <= rxn03970_c0_reverse_3d5bd <= 1000
 0 <= rxn00589_c0 <= 1000
 0 <= rxn00589_c0_reverse_9e00a <= 1000
 0 <= rxn00301_c0 <= 1000
 0 <= rxn00301_c0_reverse_bcf0e <= 1000
 0 <= EXF_DASH_PROPIONATE_LBRACKET_Extraorganism_RBRACKET_ <= 100
 EXF_DASH_PROPIONATE_LBRACKET_Extraorganism_RBRACKET__reverse_3e236 = 0
 0 <= rxn01477_c0 <= 1000
 0 <= rxn01477_c0_reverse_67584 <= 1000
 0 <= EXF_DASH_DEOXYCYTIDINE_LBRACKET_Extraorganism_RBRACKET_ <= 100
 EXF_DASH_DEOXYCYTIDINE_LBRACKET_Extraorganism_RBRACKET__reverse_f3b98 = 0
 0 <= rxn01519_c0 <= 1000
 0 <= rxn01519_c0_reverse_4bfd7 <= 1000
 0 <= rxn05667_c0 <= 1000
 0 <= rxn05667_c0_reverse_388c6 <= 1000
 DgoA = 0
 DgoA_reverse_449c8 = 0

End
